********************************************************************************
Field Output Report, written Thu Feb 22 16:00:32 2018

Source 1
---------

   ODB: C:/Users/JMJFVA~1/AppData/Local/Temp/CRJ700n.odb
   Step: Jam1
   Frame: Increment      1: Step Time =    1.000

Loc 1 : Element nodal  values at shell < ALUMINIUM > < 5 section points > from source 1 : SNEG, (fraction = -1.0) ( Average criteria = 75%, Not averaged across region boundaries )
Loc 2 : Element nodal  values at shell < ALUMINIUM > < 5 section points > from source 1 : SPOS, (fraction = 1.0) ( Average criteria = 75%, Not averaged across region boundaries )

Output sorted by column "Node Label".

Field Output reported at element nodes for region: CRJ700-1.Region_1
   Computation algorithm: EXTRAPOLATE_COMPUTE_AVERAGE
   Averaged at nodes
   Averaging regions: ODB_REGIONS

   Element Label      Node Label         S.Mises         S.Mises
                                          @Loc 1          @Loc 2
-----------------------------------------------------------------
             645               2     35.0241E-03     35.5033E-03
            1858               2     35.0241E-03     35.5033E-03
            2023               3         1.40883         1.52416
            1648               3         1.40883         1.52416
            1618               5     35.2521E-03     35.7330E-03
             675               5     35.2521E-03     35.7330E-03
            1643               6     136.758E-06     223.017E-06
             641               8     101.536E-03     101.906E-03
            1622               8     101.536E-03     101.906E-03
             671               8     101.536E-03     101.906E-03
            1862               8     101.536E-03     101.906E-03
             670               9     136.758E-06     223.017E-06
            1647              10     506.066E-06     498.454E-06
             666              10     506.066E-06     498.454E-06
            2725              11         1.41118         1.52660
             840              11         1.41118         1.52660
             836              12     332.371E-03     331.789E-03
            2721              12     332.371E-03     331.789E-03
            1652              12     332.371E-03     331.789E-03
            2027              12     332.371E-03     331.789E-03
            1668              16         1.60688         1.77393
            2145              16         1.60688         1.77393
            1672              19     529.460E-03     524.358E-03
            1833              19     529.460E-03     524.358E-03
            2149              19     529.460E-03     524.358E-03
            2741              19     529.460E-03     524.358E-03
            1837              20         1.58280         1.75047
            2745              20         1.58280         1.75047
            2764              21         1.03675         1.16991
            2165              21         1.03675         1.16991
            1857              23         1.03455         1.16634
            2174              23         1.03455         1.16634
            1853              24     758.252E-03     765.385E-03
            2170              24     758.252E-03     765.385E-03
            2169              24     758.252E-03     765.385E-03
            2768              24     758.252E-03     765.385E-03
            3191              26     90.0722E-03     91.1330E-03
            2224              26     90.0722E-03     91.1330E-03
            2220              27     244.574E-03     245.476E-03
            2856              27     244.574E-03     245.476E-03
            3187              27     244.574E-03     245.476E-03
            2818              27     244.574E-03     245.476E-03
            2852              28     78.4412E-03     79.4968E-03
            2814              28     78.4412E-03     79.4968E-03
            2877              31     136.431E-06     223.115E-06
            3216              34     136.431E-06     223.115E-06
            3212              35     505.849E-06     498.347E-06
            2881              35     505.849E-06     498.347E-06
            1863              51     65.1616E-03     79.4371E-03
            1858              51     65.1616E-03     79.4371E-03
            1863              52     42.7438E-03     66.8085E-03
            1868              52     42.7438E-03     66.8085E-03
            1873              53     70.9565E-03     76.5953E-03
            1868              53     70.9565E-03     76.5953E-03
            1873              54     157.842E-03     143.095E-03
            1878              54     157.842E-03     143.095E-03
            1883              55     217.833E-03     237.730E-03
            1878              55     217.833E-03     237.730E-03
            1888              56     323.488E-03     307.654E-03
            1883              56     323.488E-03     307.654E-03
            1893              57     406.370E-03     404.204E-03
            1888              57     406.370E-03     404.204E-03
            1898              58     341.965E-03     379.333E-03
            1893              58     341.965E-03     379.333E-03
            1898              59     315.507E-03     301.059E-03
            1903              59     315.507E-03     301.059E-03
            1908              60     389.987E-03     369.202E-03
            1903              60     389.987E-03     369.202E-03
            1913              61     445.207E-03     473.378E-03
            1908              61     445.207E-03     473.378E-03
            1918              62     568.131E-03     541.210E-03
            1913              62     568.131E-03     541.210E-03
            1918              63     658.028E-03     647.705E-03
            1923              63     658.028E-03     647.705E-03
            1928              64     584.044E-03     650.200E-03
            1923              64     584.044E-03     650.200E-03
            1928              65     581.146E-03     549.615E-03
            1933              65     581.146E-03     549.615E-03
            1938              66     632.721E-03     623.907E-03
            1933              66     632.721E-03     623.907E-03
            1943              67     699.138E-03     693.072E-03
            1938              67     699.138E-03     693.072E-03
            1948              68     758.698E-03     787.272E-03
            1943              68     758.698E-03     787.272E-03
            1953              69     887.150E-03     856.281E-03
            1948              69     887.150E-03     856.281E-03
            1953              70     984.414E-03     962.343E-03
            1958              70     984.414E-03     962.343E-03
            1958              71     882.034E-03     982.261E-03
            1963              71     882.034E-03     982.261E-03
            1963              72     892.441E-03     850.171E-03
            1968              72     892.441E-03     850.171E-03
            1968              73     935.606E-03     918.729E-03
            1973              73     935.606E-03     918.729E-03
            1978              74     989.242E-03     987.788E-03
            1973              74     989.242E-03     987.788E-03
            1978              75         1.04857         1.08163
            1983              75         1.04857         1.08163
            1988              76         1.18905         1.15023
            1983              76         1.18905         1.15023
            1993              77         1.29444         1.26168
            1988              77         1.29444         1.26168
            1993              78         1.17159         1.30239
            1998              78         1.17159         1.30239
            2003              79         1.19358         1.15515
            1998              79         1.19358         1.15515
            2008              80         1.25663         1.19203
            2003              80         1.25663         1.19203
            2008              81         1.24917         1.32866
            2013              81         1.24917         1.32866
            2013              82         1.43268         1.36214
            2018              82         1.43268         1.36214
            2018              83         1.53292         1.49916
            2023              83         1.53292         1.49916
            1623             147     602.406E-06     599.686E-06
            1618             147     602.406E-06     599.686E-06
            1623             148     439.690E-06     425.041E-06
            1628             148     439.690E-06     425.041E-06
            1633             149     259.052E-06     282.640E-06
            1628             149     259.052E-06     282.640E-06
            1633             150     169.834E-06     146.241E-06
            1638             150     169.834E-06     146.241E-06
            1643             151     120.633E-06     174.036E-06
            1638             151     120.633E-06     174.036E-06
            1861             172     97.6192E-03     97.9969E-03
             641             172     97.6192E-03     97.9969E-03
             642             172     97.6192E-03     97.9969E-03
            1862             172     97.6192E-03     97.9969E-03
             643             173     86.2867E-03     86.6921E-03
            1860             173     86.2867E-03     86.6921E-03
            1861             173     86.2867E-03     86.6921E-03
             642             173     86.2867E-03     86.6921E-03
             643             174     68.6929E-03     69.1465E-03
             644             174     68.6929E-03     69.1465E-03
            1859             174     68.6929E-03     69.1465E-03
            1860             174     68.6929E-03     69.1465E-03
             645             175     46.7733E-03     47.2535E-03
            1859             175     46.7733E-03     47.2535E-03
            1858             175     46.7733E-03     47.2535E-03
             644             175     46.7733E-03     47.2535E-03
             645             176     602.406E-06     599.686E-06
             650             176     602.406E-06     599.686E-06
             655             177     439.690E-06     425.041E-06
             650             177     439.690E-06     425.041E-06
             660             178     259.052E-06     282.640E-06
             655             178     259.052E-06     282.640E-06
             665             179     169.834E-06     146.241E-06
             660             179     169.834E-06     146.241E-06
             670             180     120.633E-06     174.036E-06
             665             180     120.633E-06     174.036E-06
             670             181     156.086E-06     203.640E-06
             669             181     156.086E-06     203.640E-06
             669             182     240.796E-06     249.149E-06
             668             182     240.796E-06     249.149E-06
             667             183     376.765E-06     376.016E-06
             668             183     376.765E-06     376.016E-06
             666             184     476.709E-06     468.226E-06
             667             184     476.709E-06     468.226E-06
            1647             185     512.877E-06     503.254E-06
             666             185     512.877E-06     503.254E-06
             661             185     512.877E-06     503.254E-06
            1642             185     512.877E-06     503.254E-06
            1642             186     516.858E-06     506.735E-06
             656             186     516.858E-06     506.735E-06
            1637             186     516.858E-06     506.735E-06
             661             186     516.858E-06     506.735E-06
             651             187     511.223E-06     509.089E-06
            1632             187     511.223E-06     509.089E-06
            1637             187     511.223E-06     509.089E-06
             656             187     511.223E-06     509.089E-06
             651             188     516.502E-06     512.903E-06
            1632             188     516.502E-06     512.903E-06
            1627             188     516.502E-06     512.903E-06
             646             188     516.502E-06     512.903E-06
             646             189     514.378E-06     501.985E-06
            1622             189     514.378E-06     501.985E-06
            1627             189     514.378E-06     501.985E-06
             641             189     514.378E-06     501.985E-06
             672             190     97.6503E-03     98.0285E-03
            1622             190     97.6503E-03     98.0285E-03
            1621             190     97.6503E-03     98.0285E-03
             671             190     97.6503E-03     98.0285E-03
            1621             191     86.3517E-03     86.7582E-03
             673             191     86.3517E-03     86.7582E-03
            1620             191     86.3517E-03     86.7582E-03
             672             191     86.3517E-03     86.7582E-03
             673             192     68.8008E-03     69.2559E-03
             674             192     68.8008E-03     69.2559E-03
            1619             192     68.8008E-03     69.2559E-03
            1620             192     68.8008E-03     69.2559E-03
            1619             193     46.9536E-03     47.4356E-03
             675             193     46.9536E-03     47.4356E-03
            1618             193     46.9536E-03     47.4356E-03
             674             193     46.9536E-03     47.4356E-03
             675             194     65.0157E-03     78.8756E-03
             680             194     65.0157E-03     78.8756E-03
             685             195     43.0405E-03     66.6977E-03
             680             195     43.0405E-03     66.6977E-03
             685             196     72.4451E-03     78.2059E-03
             690             196     72.4451E-03     78.2059E-03
             690             197     159.569E-03     144.827E-03
             695             197     159.569E-03     144.827E-03
             695             198     219.560E-03     239.470E-03
             700             198     219.560E-03     239.470E-03
             700             199     325.316E-03     309.408E-03
             705             199     325.316E-03     309.408E-03
             710             200     408.278E-03     406.027E-03
             705             200     408.278E-03     406.027E-03
             710             201     343.734E-03     381.311E-03
             715             201     343.734E-03     381.311E-03
             720             202     317.367E-03     302.844E-03
             715             202     317.367E-03     302.844E-03
             725             203     391.814E-03     370.902E-03
             720             203     391.814E-03     370.902E-03
             725             204     446.880E-03     475.149E-03
             730             204     446.880E-03     475.149E-03
             735             205     569.958E-03     542.915E-03
             730             205     569.958E-03     542.915E-03
             735             206     659.912E-03     649.520E-03
             740             206     659.912E-03     649.520E-03
             745             207     585.826E-03     652.196E-03
             740             207     585.826E-03     652.196E-03
             745             208     583.042E-03     551.428E-03
             750             208     583.042E-03     551.428E-03
             755             209     634.547E-03     625.659E-03
             750             209     634.547E-03     625.659E-03
             760             210     700.872E-03     694.815E-03
             755             210     700.872E-03     694.815E-03
             765             211     760.432E-03     789.015E-03
             760             211     760.432E-03     789.015E-03
             765             212     888.978E-03     858.036E-03
             770             212     888.978E-03     858.036E-03
             770             213     986.325E-03     964.169E-03
             775             213     986.325E-03     964.169E-03
             775             214     883.830E-03     984.274E-03
             780             214     883.830E-03     984.274E-03
             785             215     894.342E-03     851.990E-03
             780             215     894.342E-03     851.990E-03
             790             216     937.433E-03     920.482E-03
             785             216     937.433E-03     920.482E-03
             795             217     990.977E-03     989.530E-03
             790             217     990.977E-03     989.530E-03
             795             218         1.05030         1.08337
             800             218         1.05030         1.08337
             805             219         1.19088         1.15198
             800             219         1.19088         1.15198
             805             220         1.29635         1.26351
             810             220         1.29635         1.26351
             810             221         1.17338         1.30439
             815             221         1.17338         1.30439
             820             222         1.19546         1.15696
             815             222         1.19546         1.15696
             825             223         1.25846         1.19373
             820             223         1.25846         1.19373
             825             224         1.25085         1.33044
             830             224         1.25085         1.33044
             835             225         1.43451         1.36384
             830             225         1.43451         1.36384
             840             226         1.53480         1.50097
             835             226         1.53480         1.50097
             839             227         1.29909         1.44796
             840             227         1.29909         1.44796
            2724             227         1.29909         1.44796
            2725             227         1.29909         1.44796
            2723             228         1.07359         1.22258
            2724             228         1.07359         1.22258
             838             228         1.07359         1.22258
             839             228         1.07359         1.22258
             838             229     803.194E-03     883.461E-03
            2723             229     803.194E-03     883.461E-03
             837             229     803.194E-03     883.461E-03
            2722             229     803.194E-03     883.461E-03
            2721             230     490.182E-03     512.361E-03
            2722             230     490.182E-03     512.361E-03
             837             230     490.182E-03     512.361E-03
             836             230     490.182E-03     512.361E-03
             836             231     381.015E-03     366.888E-03
            2027             231     381.015E-03     366.888E-03
             831             231     381.015E-03     366.888E-03
            2022             231     381.015E-03     366.888E-03
            2022             232     386.379E-03     397.144E-03
             826             232     386.379E-03     397.144E-03
             831             232     386.379E-03     397.144E-03
            2017             232     386.379E-03     397.144E-03
             821             233     379.528E-03     396.603E-03
            2017             233     379.528E-03     396.603E-03
             826             233     379.528E-03     396.603E-03
            2012             233     379.528E-03     396.603E-03
            2007             234     390.637E-03     371.520E-03
             816             234     390.637E-03     371.520E-03
             821             234     390.637E-03     371.520E-03
            2012             234     390.637E-03     371.520E-03
             811             235     377.737E-03     375.851E-03
            2007             235     377.737E-03     375.851E-03
             816             235     377.737E-03     375.851E-03
            2002             235     377.737E-03     375.851E-03
            1997             236     355.218E-03     363.322E-03
             806             236     355.218E-03     363.322E-03
             811             236     355.218E-03     363.322E-03
            2002             236     355.218E-03     363.322E-03
             801             237     363.625E-03     353.035E-03
            1992             237     363.625E-03     353.035E-03
             806             237     363.625E-03     353.035E-03
            1997             237     363.625E-03     353.035E-03
            1987             238     367.461E-03     379.197E-03
             801             238     367.461E-03     379.197E-03
             796             238     367.461E-03     379.197E-03
            1992             238     367.461E-03     379.197E-03
            1982             239     359.334E-03     375.138E-03
             791             239     359.334E-03     375.138E-03
            1987             239     359.334E-03     375.138E-03
             796             239     359.334E-03     375.138E-03
            1977             240     370.515E-03     361.350E-03
             786             240     370.515E-03     361.350E-03
            1982             240     370.515E-03     361.350E-03
             791             240     370.515E-03     361.350E-03
            1977             241     365.310E-03     349.044E-03
             781             241     365.310E-03     349.044E-03
             786             241     365.310E-03     349.044E-03
            1972             241     365.310E-03     349.044E-03
             776             242     355.276E-03     350.702E-03
             781             242     355.276E-03     350.702E-03
            1972             242     355.276E-03     350.702E-03
            1967             242     355.276E-03     350.702E-03
            1967             243     342.299E-03     343.424E-03
             776             243     342.299E-03     343.424E-03
             771             243     342.299E-03     343.424E-03
            1962             243     342.299E-03     343.424E-03
             771             244     345.870E-03     337.046E-03
            1962             244     345.870E-03     337.046E-03
            1957             244     345.870E-03     337.046E-03
             766             244     345.870E-03     337.046E-03
            1957             245     347.482E-03     356.587E-03
            1952             245     347.482E-03     356.587E-03
             761             245     347.482E-03     356.587E-03
             766             245     347.482E-03     356.587E-03
             756             246     340.923E-03     351.403E-03
            1947             246     340.923E-03     351.403E-03
             761             246     340.923E-03     351.403E-03
            1952             246     340.923E-03     351.403E-03
            1942             247     349.392E-03     340.843E-03
             756             247     349.392E-03     340.843E-03
             751             247     349.392E-03     340.843E-03
            1947             247     349.392E-03     340.843E-03
             751             248     345.817E-03     333.775E-03
            1942             248     345.817E-03     333.775E-03
            1937             248     345.817E-03     333.775E-03
             746             248     345.817E-03     333.775E-03
            1932             249     339.449E-03     335.370E-03
             746             249     339.449E-03     335.370E-03
            1937             249     339.449E-03     335.370E-03
             741             249     339.449E-03     335.370E-03
             741             250     330.100E-03     328.348E-03
            1932             250     330.100E-03     328.348E-03
             736             250     330.100E-03     328.348E-03
            1927             250     330.100E-03     328.348E-03
            1927             251     330.846E-03     323.079E-03
             736             251     330.846E-03     323.079E-03
            1922             251     330.846E-03     323.079E-03
             731             251     330.846E-03     323.079E-03
            1917             252     331.832E-03     335.579E-03
            1922             252     331.832E-03     335.579E-03
             731             252     331.832E-03     335.579E-03
             726             252     331.832E-03     335.579E-03
             726             253     328.947E-03     331.506E-03
            1912             253     328.947E-03     331.506E-03
             721             253     328.947E-03     331.506E-03
            1917             253     328.947E-03     331.506E-03
             721             254     333.498E-03     324.790E-03
            1907             254     333.498E-03     324.790E-03
            1912             254     333.498E-03     324.790E-03
             716             254     333.498E-03     324.790E-03
            1907             255     329.299E-03     326.880E-03
            1902             255     329.299E-03     326.880E-03
             711             255     329.299E-03     326.880E-03
             716             255     329.299E-03     326.880E-03
            1902             256     323.953E-03     321.722E-03
             706             256     323.953E-03     321.722E-03
             711             256     323.953E-03     321.722E-03
            1897             256     323.953E-03     321.722E-03
             706             257     327.306E-03     321.401E-03
            1892             257     327.306E-03     321.401E-03
            1897             257     327.306E-03     321.401E-03
             701             257     327.306E-03     321.401E-03
             701             258     327.478E-03     329.715E-03
            1887             258     327.478E-03     329.715E-03
             696             258     327.478E-03     329.715E-03
            1892             258     327.478E-03     329.715E-03
            1882             259     324.529E-03     325.510E-03
            1887             259     324.529E-03     325.510E-03
             696             259     324.529E-03     325.510E-03
             691             259     324.529E-03     325.510E-03
            1877             260     326.849E-03     322.575E-03
            1882             260     326.849E-03     322.575E-03
             686             260     326.849E-03     322.575E-03
             691             260     326.849E-03     322.575E-03
             686             261     327.008E-03     323.470E-03
            1872             261     327.008E-03     323.470E-03
             681             261     327.008E-03     323.470E-03
            1877             261     327.008E-03     323.470E-03
             676             262     325.514E-03     320.969E-03
            1872             262     325.514E-03     320.969E-03
             681             262     325.514E-03     320.969E-03
            1867             262     325.514E-03     320.969E-03
             676             263     263.166E-03     261.585E-03
             671             263     263.166E-03     261.585E-03
            1867             263     263.166E-03     261.585E-03
            1862             263     263.166E-03     261.585E-03
            1648             314         1.36841         1.41796
            1653             314         1.36841         1.41796
            1653             315         1.46682         1.47409
            1658             315         1.46682         1.47409
            1663             316         1.64088         1.51633
            1658             316         1.64088         1.51633
            1663             317         1.68918         1.68824
            1668             317         1.68918         1.68824
            1646             358     476.709E-06     468.226E-06
            1647             358     476.709E-06     468.226E-06
            1646             359     376.765E-06     376.016E-06
            1645             359     376.765E-06     376.016E-06
            1644             360     240.796E-06     249.149E-06
            1645             360     240.796E-06     249.149E-06
            1643             361     156.086E-06     203.640E-06
            1644             361     156.086E-06     203.640E-06
            2023             362         1.29625         1.44500
            1649             362         1.29625         1.44500
            2024             362         1.29625         1.44500
            1648             362         1.29625         1.44500
            1650             363         1.06980         1.21867
            2025             363         1.06980         1.21867
            1649             363         1.06980         1.21867
            2024             363         1.06980         1.21867
            2026             364     798.743E-03     878.890E-03
            1650             364     798.743E-03     878.890E-03
            1651             364     798.743E-03     878.890E-03
            2025             364     798.743E-03     878.890E-03
            2027             365     486.065E-03     508.105E-03
            1651             365     486.065E-03     508.105E-03
            1652             365     486.065E-03     508.105E-03
            2026             365     486.065E-03     508.105E-03
            2726             366     370.558E-03     386.235E-03
            1652             366     370.558E-03     386.235E-03
            1657             366     370.558E-03     386.235E-03
            2721             366     370.558E-03     386.235E-03
            2731             367     421.128E-03     445.510E-03
            1662             367     421.128E-03     445.510E-03
            2726             367     421.128E-03     445.510E-03
            1657             367     421.128E-03     445.510E-03
            1667             368     441.119E-03     435.808E-03
            1662             368     441.119E-03     435.808E-03
            2736             368     441.119E-03     435.808E-03
            2731             368     441.119E-03     435.808E-03
            2741             369     436.271E-03     418.686E-03
            1672             369     436.271E-03     418.686E-03
            2736             369     436.271E-03     418.686E-03
            1667             369     436.271E-03     418.686E-03
            2148             370     667.889E-03     702.315E-03
            1672             370     667.889E-03     702.315E-03
            1671             370     667.889E-03     702.315E-03
            2149             370     667.889E-03     702.315E-03
            2147             371     954.141E-03         1.05647
            1671             371     954.141E-03         1.05647
            2148             371     954.141E-03         1.05647
            1670             371     954.141E-03         1.05647
            1670             372         1.21274         1.38764
            2146             372         1.21274         1.38764
            2147             372         1.21274         1.38764
            1669             372         1.21274         1.38764
            2145             373         1.46367         1.65412
            1668             373         1.46367         1.65412
            1669             373         1.46367         1.65412
            2146             373         1.46367         1.65412
            2740             389         1.65452         1.66024
            2745             389         1.65452         1.66024
            2735             390         1.62747         1.50320
            2740             390         1.62747         1.50320
            2735             391         1.47724         1.47744
            2730             391         1.47724         1.47744
            2725             392         1.37729         1.42474
            2730             392         1.37729         1.42474
            2145             393         1.46315         1.48643
            2150             393         1.46315         1.48643
            2155             394         1.39470         1.46370
            2150             394         1.39470         1.46370
            2160             395         1.41618         1.39889
            2155             395         1.41618         1.39889
            2165             396         1.19122         1.07359
            2160             396         1.19122         1.07359
            2741             416     660.020E-03     682.431E-03
            2742             416     660.020E-03     682.431E-03
            1834             416     660.020E-03     682.431E-03
            1833             416     660.020E-03     682.431E-03
            1834             417     944.532E-03         1.03306
            1835             417     944.532E-03         1.03306
            2743             417     944.532E-03         1.03306
            2742             417     944.532E-03         1.03306
            2744             418         1.20016         1.36442
            2743             418         1.20016         1.36442
            1836             418         1.20016         1.36442
            1835             418         1.20016         1.36442
            1837             419         1.44385         1.63100
            1836             419         1.44385         1.63100
            2744             419         1.44385         1.63100
            2745             419         1.44385         1.63100
            1837             420         1.45075         1.47414
            1842             420         1.45075         1.47414
            1842             421         1.38057         1.45104
            1847             421         1.38057         1.45104
            1852             422         1.40258         1.38693
            1847             422         1.40258         1.38693
            1852             423         1.18728         1.06859
            1857             423         1.18728         1.06859
            1856             424     969.353E-03         1.14749
            1857             424     969.353E-03         1.14749
            2174             424     969.353E-03         1.14749
            2173             424     969.353E-03         1.14749
            2172             425     889.966E-03         1.06245
            2173             425     889.966E-03         1.06245
            1855             425     889.966E-03         1.06245
            1856             425     889.966E-03         1.06245
            2171             426     839.435E-03     922.418E-03
            1854             426     839.435E-03     922.418E-03
            2172             426     839.435E-03     922.418E-03
            1855             426     839.435E-03     922.418E-03
            1854             427     781.245E-03     807.349E-03
            2171             427     781.245E-03     807.349E-03
            1853             427     781.245E-03     807.349E-03
            2170             427     781.245E-03     807.349E-03
            2164             428     782.754E-03     788.240E-03
            1848             428     782.754E-03     788.240E-03
            1853             428     782.754E-03     788.240E-03
            2169             428     782.754E-03     788.240E-03
            2164             429     791.873E-03     762.181E-03
            2159             429     791.873E-03     762.181E-03
            1848             429     791.873E-03     762.181E-03
            1843             429     791.873E-03     762.181E-03
            1843             430     839.014E-03     819.418E-03
            1838             430     839.014E-03     819.418E-03
            2159             430     839.014E-03     819.418E-03
            2154             430     839.014E-03     819.418E-03
            2149             431     780.467E-03     772.266E-03
            2154             431     780.467E-03     772.266E-03
            1833             431     780.467E-03     772.266E-03
            1838             431     780.467E-03     772.266E-03
            2168             440     776.789E-03     804.685E-03
            2767             440     776.789E-03     804.685E-03
            2169             440     776.789E-03     804.685E-03
            2768             440     776.789E-03     804.685E-03
            2168             441     832.913E-03     918.915E-03
            2767             441     832.913E-03     918.915E-03
            2167             441     832.913E-03     918.915E-03
            2766             441     832.913E-03     918.915E-03
            2765             442     884.813E-03         1.06066
            2167             442     884.813E-03         1.06066
            2166             442     884.813E-03         1.06066
            2766             442     884.813E-03         1.06066
            2166             443     968.508E-03         1.14906
            2165             443     968.508E-03         1.14906
            2764             443     968.508E-03         1.14906
            2765             443     968.508E-03         1.14906
            2174             444         1.07060         1.06841
            2179             444         1.07060         1.06841
            2179             445     876.785E-03     762.725E-03
            2184             445     876.785E-03     762.725E-03
            2189             446     825.181E-03     936.354E-03
            2184             446     825.181E-03     936.354E-03
            2194             447     965.286E-03     961.529E-03
            2189             447     965.286E-03     961.529E-03
            2194             448     771.553E-03     731.027E-03
            2199             448     771.553E-03     731.027E-03
            2204             449     518.743E-03     566.919E-03
            2199             449     518.743E-03     566.919E-03
            2204             450     376.673E-03     341.120E-03
            2209             450     376.673E-03     341.120E-03
            2214             451     176.256E-03     185.351E-03
            2209             451     176.256E-03     185.351E-03
            2219             452     112.103E-03     165.170E-03
            2214             452     112.103E-03     165.170E-03
            2224             453     166.719E-03     199.131E-03
            2219             453     166.719E-03     199.131E-03
            3190             454     118.112E-03     119.165E-03
            2224             454     118.112E-03     119.165E-03
            3191             454     118.112E-03     119.165E-03
            2223             454     118.112E-03     119.165E-03
            2222             455     170.098E-03     171.108E-03
            3190             455     170.098E-03     171.108E-03
            2223             455     170.098E-03     171.108E-03
            3189             455     170.098E-03     171.108E-03
            2222             456     211.188E-03     212.138E-03
            2221             456     211.188E-03     212.138E-03
            3188             456     211.188E-03     212.138E-03
            3189             456     211.188E-03     212.138E-03
            3188             457     236.894E-03     237.808E-03
            2221             457     236.894E-03     237.808E-03
            3187             457     236.894E-03     237.808E-03
            2220             457     236.894E-03     237.808E-03
            2818             458     635.105E-03     631.522E-03
            2813             458     635.105E-03     631.522E-03
            2215             458     635.105E-03     631.522E-03
            2220             458     635.105E-03     631.522E-03
            2210             459     785.906E-03     775.338E-03
            2813             459     785.906E-03     775.338E-03
            2808             459     785.906E-03     775.338E-03
            2215             459     785.906E-03     775.338E-03
            2803             460     789.815E-03     781.340E-03
            2205             460     789.815E-03     781.340E-03
            2210             460     789.815E-03     781.340E-03
            2808             460     789.815E-03     781.340E-03
            2200             461     789.210E-03     779.109E-03
            2205             461     789.210E-03     779.109E-03
            2798             461     789.210E-03     779.109E-03
            2803             461     789.210E-03     779.109E-03
            2793             462     783.621E-03     785.931E-03
            2798             462     783.621E-03     785.931E-03
            2195             462     783.621E-03     785.931E-03
            2200             462     783.621E-03     785.931E-03
            2788             463     790.681E-03     795.341E-03
            2195             463     790.681E-03     795.341E-03
            2190             463     790.681E-03     795.341E-03
            2793             463     790.681E-03     795.341E-03
            2783             464     789.689E-03     775.216E-03
            2190             464     789.689E-03     775.216E-03
            2788             464     789.689E-03     775.216E-03
            2185             464     789.689E-03     775.216E-03
            2778             465     761.347E-03     768.672E-03
            2783             465     761.347E-03     768.672E-03
            2180             465     761.347E-03     768.672E-03
            2185             465     761.347E-03     768.672E-03
            2180             466     767.330E-03     769.992E-03
            2175             466     767.330E-03     769.992E-03
            2778             466     767.330E-03     769.992E-03
            2773             466     767.330E-03     769.992E-03
            2773             467     773.882E-03     746.674E-03
            2175             467     773.882E-03     746.674E-03
            2768             467     773.882E-03     746.674E-03
            2170             467     773.882E-03     746.674E-03
            2769             470         1.07800         1.07461
            2764             470         1.07800         1.07461
            2769             471     875.737E-03     762.921E-03
            2774             471     875.737E-03     762.921E-03
            2774             472     822.124E-03     933.933E-03
            2779             472     822.124E-03     933.933E-03
            2779             473     966.930E-03     962.104E-03
            2784             473     966.930E-03     962.104E-03
            2789             474     770.687E-03     730.823E-03
            2784             474     770.687E-03     730.823E-03
            2789             475     516.520E-03     564.748E-03
            2794             475     516.520E-03     564.748E-03
            2799             476     372.623E-03     337.913E-03
            2794             476     372.623E-03     337.913E-03
            2799             477     159.599E-03     177.817E-03
            2804             477     159.599E-03     177.817E-03
            2809             478     89.1861E-03     156.735E-03
            2804             478     89.1861E-03     156.735E-03
            2809             479     145.588E-03     184.788E-03
            2814             479     145.588E-03     184.788E-03
            2857             562     599.245E-06     596.761E-06
            2852             562     599.245E-06     596.761E-06
            2857             563     437.820E-06     422.783E-06
            2862             563     437.820E-06     422.783E-06
            2867             564     257.651E-06     281.364E-06
            2862             564     257.651E-06     281.364E-06
            2872             565     169.457E-06     145.888E-06
            2867             565     169.457E-06     145.888E-06
            2872             566     120.861E-06     174.030E-06
            2877             566     120.861E-06     174.030E-06
            3211             596     120.861E-06     174.030E-06
            3216             596     120.861E-06     174.030E-06
            3206             597     169.457E-06     145.888E-06
            3211             597     169.457E-06     145.888E-06
            3206             598     257.651E-06     281.364E-06
            3201             598     257.651E-06     281.364E-06
            3196             599     437.820E-06     422.783E-06
            3201             599     437.820E-06     422.783E-06
            3196             600     599.245E-06     596.761E-06
            3191             600     599.245E-06     596.761E-06
            2817             601     233.440E-03     234.351E-03
            2856             601     233.440E-03     234.351E-03
            2855             601     233.440E-03     234.351E-03
            2818             601     233.440E-03     234.351E-03
            2854             602     204.591E-03     205.534E-03
            2816             602     204.591E-03     205.534E-03
            2817             602     204.591E-03     205.534E-03
            2855             602     204.591E-03     205.534E-03
            2853             603     160.938E-03     161.940E-03
            2816             603     160.938E-03     161.940E-03
            2854             603     160.938E-03     161.940E-03
            2815             603     160.938E-03     161.940E-03
            2852             604     107.163E-03     108.209E-03
            2815             604     107.163E-03     108.209E-03
            2814             604     107.163E-03     108.209E-03
            2853             604     107.163E-03     108.209E-03
            3192             607     514.128E-06     501.678E-06
            2861             607     514.128E-06     501.678E-06
            3187             607     514.128E-06     501.678E-06
            2856             607     514.128E-06     501.678E-06
            2866             608     516.322E-06     512.613E-06
            3197             608     516.322E-06     512.613E-06
            3192             608     516.322E-06     512.613E-06
            2861             608     516.322E-06     512.613E-06
            3202             609     511.046E-06     508.951E-06
            2871             609     511.046E-06     508.951E-06
            2866             609     511.046E-06     508.951E-06
            3197             609     511.046E-06     508.951E-06
            2871             610     516.656E-06     506.562E-06
            3202             610     516.656E-06     506.562E-06
            3207             610     516.656E-06     506.562E-06
            2876             610     516.656E-06     506.562E-06
            2876             611     512.680E-06     503.077E-06
            3212             611     512.680E-06     503.077E-06
            3207             611     512.680E-06     503.077E-06
            2881             611     512.680E-06     503.077E-06
            2880             612     476.606E-06     468.179E-06
            2881             612     476.606E-06     468.179E-06
            2880             613     376.828E-06     376.023E-06
            2879             613     376.828E-06     376.023E-06
            2879             614     240.782E-06     249.018E-06
            2878             614     240.782E-06     249.018E-06
            2877             615     155.852E-06     203.558E-06
            2878             615     155.852E-06     203.558E-06
            3216             631     155.852E-06     203.558E-06
            3215             631     155.852E-06     203.558E-06
            3215             632     240.782E-06     249.018E-06
            3214             632     240.782E-06     249.018E-06
            3213             633     376.828E-06     376.023E-06
            3214             633     376.828E-06     376.023E-06
            3213             634     476.606E-06     468.179E-06
            3212             634     476.606E-06     468.179E-06
             647            1205     509.363E-06     494.572E-06
             641            1205     509.363E-06     494.572E-06
             642            1205     509.363E-06     494.572E-06
             646            1205     509.363E-06     494.572E-06
             648            1206     484.048E-06     469.183E-06
             647            1206     484.048E-06     469.183E-06
             643            1206     484.048E-06     469.183E-06
             642            1206     484.048E-06     469.183E-06
             649            1207     462.781E-06     459.052E-06
             648            1207     462.781E-06     459.052E-06
             643            1207     462.781E-06     459.052E-06
             644            1207     462.781E-06     459.052E-06
             645            1208     532.110E-06     533.292E-06
             650            1208     532.110E-06     533.292E-06
             644            1208     532.110E-06     533.292E-06
             649            1208     532.110E-06     533.292E-06
             646            1209     503.881E-06     495.136E-06
             651            1209     503.881E-06     495.136E-06
             647            1209     503.881E-06     495.136E-06
             652            1209     503.881E-06     495.136E-06
             648            1210     463.633E-06     440.759E-06
             652            1210     463.633E-06     440.759E-06
             653            1210     463.633E-06     440.759E-06
             647            1210     463.633E-06     440.759E-06
             654            1211     414.811E-06     386.320E-06
             648            1211     414.811E-06     386.320E-06
             649            1211     414.811E-06     386.320E-06
             653            1211     414.811E-06     386.320E-06
             649            1212     416.654E-06     396.765E-06
             654            1212     416.654E-06     396.765E-06
             650            1212     416.654E-06     396.765E-06
             655            1212     416.654E-06     396.765E-06
             657            1213     483.536E-06     486.052E-06
             656            1213     483.536E-06     486.052E-06
             652            1213     483.536E-06     486.052E-06
             651            1213     483.536E-06     486.052E-06
             657            1214     410.353E-06     422.654E-06
             658            1214     410.353E-06     422.654E-06
             653            1214     410.353E-06     422.654E-06
             652            1214     410.353E-06     422.654E-06
             653            1215     304.516E-06     324.682E-06
             659            1215     304.516E-06     324.682E-06
             658            1215     304.516E-06     324.682E-06
             654            1215     304.516E-06     324.682E-06
             659            1216     251.614E-06     274.857E-06
             654            1216     251.614E-06     274.857E-06
             660            1216     251.614E-06     274.857E-06
             655            1216     251.614E-06     274.857E-06
             661            1217     484.885E-06     477.690E-06
             662            1217     484.885E-06     477.690E-06
             657            1217     484.885E-06     477.690E-06
             656            1217     484.885E-06     477.690E-06
             657            1218     397.522E-06     396.205E-06
             658            1218     397.522E-06     396.205E-06
             663            1218     397.522E-06     396.205E-06
             662            1218     397.522E-06     396.205E-06
             658            1219     268.664E-06     259.272E-06
             663            1219     268.664E-06     259.272E-06
             664            1219     268.664E-06     259.272E-06
             659            1219     268.664E-06     259.272E-06
             665            1220     182.515E-06     160.509E-06
             660            1220     182.515E-06     160.509E-06
             664            1220     182.515E-06     160.509E-06
             659            1220     182.515E-06     160.509E-06
             661            1221     481.279E-06     472.828E-06
             667            1221     481.279E-06     472.828E-06
             666            1221     481.279E-06     472.828E-06
             662            1221     481.279E-06     472.828E-06
             662            1222     383.876E-06     384.769E-06
             667            1222     383.876E-06     384.769E-06
             663            1222     383.876E-06     384.769E-06
             668            1222     383.876E-06     384.769E-06
             669            1223     242.616E-06     255.634E-06
             663            1223     242.616E-06     255.634E-06
             664            1223     242.616E-06     255.634E-06
             668            1223     242.616E-06     255.634E-06
             664            1224     143.898E-06     179.083E-06
             670            1224     143.898E-06     179.083E-06
             665            1224     143.898E-06     179.083E-06
             669            1224     143.898E-06     179.083E-06
             672            1225     250.299E-03     248.878E-03
             677            1225     250.299E-03     248.878E-03
             671            1225     250.299E-03     248.878E-03
             676            1225     250.299E-03     248.878E-03
             673            1226     212.549E-03     212.841E-03
             672            1226     212.549E-03     212.841E-03
             677            1226     212.549E-03     212.841E-03
             678            1226     212.549E-03     212.841E-03
             678            1227     160.932E-03     162.136E-03
             673            1227     160.932E-03     162.136E-03
             679            1227     160.932E-03     162.136E-03
             674            1227     160.932E-03     162.136E-03
             679            1228     99.5950E-03     106.815E-03
             675            1228     99.5950E-03     106.815E-03
             674            1228     99.5950E-03     106.815E-03
             680            1228     99.5950E-03     106.815E-03
             676            1229     307.504E-03     304.097E-03
             677            1229     307.504E-03     304.097E-03
             681            1229     307.504E-03     304.097E-03
             682            1229     307.504E-03     304.097E-03
             682            1230     253.915E-03     257.650E-03
             677            1230     253.915E-03     257.650E-03
             683            1230     253.915E-03     257.650E-03
             678            1230     253.915E-03     257.650E-03
             683            1231     184.996E-03     191.675E-03
             684            1231     184.996E-03     191.675E-03
             678            1231     184.996E-03     191.675E-03
             679            1231     184.996E-03     191.675E-03
             680            1232     97.3325E-03     110.977E-03
             685            1232     97.3325E-03     110.977E-03
             679            1232     97.3325E-03     110.977E-03
             684            1232     97.3325E-03     110.977E-03
             681            1233     309.415E-03     308.307E-03
             687            1233     309.415E-03     308.307E-03
             686            1233     309.415E-03     308.307E-03
             682            1233     309.415E-03     308.307E-03
             682            1234     262.737E-03     267.712E-03
             688            1234     262.737E-03     267.712E-03
             683            1234     262.737E-03     267.712E-03
             687            1234     262.737E-03     267.712E-03
             688            1235     195.810E-03     201.305E-03
             683            1235     195.810E-03     201.305E-03
             684            1235     195.810E-03     201.305E-03
             689            1235     195.810E-03     201.305E-03
             690            1236     115.180E-03     119.241E-03
             684            1236     115.180E-03     119.241E-03
             689            1236     115.180E-03     119.241E-03
             685            1236     115.180E-03     119.241E-03
             686            1237     312.746E-03     311.628E-03
             687            1237     312.746E-03     311.628E-03
             691            1237     312.746E-03     311.628E-03
             692            1237     312.746E-03     311.628E-03
             688            1238     277.154E-03     275.679E-03
             687            1238     277.154E-03     275.679E-03
             692            1238     277.154E-03     275.679E-03
             693            1238     277.154E-03     275.679E-03
             688            1239     223.298E-03     215.206E-03
             693            1239     223.298E-03     215.206E-03
             689            1239     223.298E-03     215.206E-03
             694            1239     223.298E-03     215.206E-03
             689            1240     175.204E-03     162.238E-03
             695            1240     175.204E-03     162.238E-03
             690            1240     175.204E-03     162.238E-03
             694            1240     175.204E-03     162.238E-03
             696            1241     314.941E-03     318.649E-03
             692            1241     314.941E-03     318.649E-03
             697            1241     314.941E-03     318.649E-03
             691            1241     314.941E-03     318.649E-03
             692            1242     287.108E-03     296.396E-03
             697            1242     287.108E-03     296.396E-03
             693            1242     287.108E-03     296.396E-03
             698            1242     287.108E-03     296.396E-03
             694            1243     245.039E-03     265.234E-03
             698            1243     245.039E-03     265.234E-03
             699            1243     245.039E-03     265.234E-03
             693            1243     245.039E-03     265.234E-03
             694            1244     220.327E-03     244.392E-03
             699            1244     220.327E-03     244.392E-03
             695            1244     220.327E-03     244.392E-03
             700            1244     220.327E-03     244.392E-03
             696            1245     328.673E-03     324.523E-03
             697            1245     328.673E-03     324.523E-03
             702            1245     328.673E-03     324.523E-03
             701            1245     328.673E-03     324.523E-03
             698            1246     323.403E-03     308.163E-03
             697            1246     323.403E-03     308.163E-03
             702            1246     323.403E-03     308.163E-03
             703            1246     323.403E-03     308.163E-03
             698            1247     314.361E-03     297.286E-03
             703            1247     314.361E-03     297.286E-03
             704            1247     314.361E-03     297.286E-03
             699            1247     314.361E-03     297.286E-03
             705            1248     318.462E-03     303.411E-03
             699            1248     318.462E-03     303.411E-03
             700            1248     318.462E-03     303.411E-03
             704            1248     318.462E-03     303.411E-03
             702            1249     332.060E-03     323.137E-03
             701            1249     332.060E-03     323.137E-03
             706            1249     332.060E-03     323.137E-03
             707            1249     332.060E-03     323.137E-03
             708            1250     335.883E-03     324.313E-03
             703            1250     335.883E-03     324.313E-03
             707            1250     335.883E-03     324.313E-03
             702            1250     335.883E-03     324.313E-03
             703            1251     341.186E-03     336.909E-03
             708            1251     341.186E-03     336.909E-03
             709            1251     341.186E-03     336.909E-03
             704            1251     341.186E-03     336.909E-03
             704            1252     377.764E-03     377.961E-03
             709            1252     377.764E-03     377.961E-03
             710            1252     377.764E-03     377.961E-03
             705            1252     377.764E-03     377.961E-03
             711            1253     321.457E-03     323.358E-03
             707            1253     321.457E-03     323.358E-03
             712            1253     321.457E-03     323.358E-03
             706            1253     321.457E-03     323.358E-03
             712            1254     312.404E-03     336.106E-03
             707            1254     312.404E-03     336.106E-03
             708            1254     312.404E-03     336.106E-03
             713            1254     312.404E-03     336.106E-03
             714            1255     310.574E-03     365.144E-03
             713            1255     310.574E-03     365.144E-03
             709            1255     310.574E-03     365.144E-03
             708            1255     310.574E-03     365.144E-03
             709            1256     329.449E-03     382.100E-03
             715            1256     329.449E-03     382.100E-03
             710            1256     329.449E-03     382.100E-03
             714            1256     329.449E-03     382.100E-03
             717            1257     328.530E-03     326.934E-03
             716            1257     328.530E-03     326.934E-03
             711            1257     328.530E-03     326.934E-03
             712            1257     328.530E-03     326.934E-03
             712            1258     333.531E-03     334.737E-03
             718            1258     333.531E-03     334.737E-03
             717            1258     333.531E-03     334.737E-03
             713            1258     333.531E-03     334.737E-03
             718            1259     349.536E-03     353.642E-03
             713            1259     349.536E-03     353.642E-03
             719            1259     349.536E-03     353.642E-03
             714            1259     349.536E-03     353.642E-03
             715            1260     338.469E-03     333.735E-03
             720            1260     338.469E-03     333.735E-03
             719            1260     338.469E-03     333.735E-03
             714            1260     338.469E-03     333.735E-03
             717            1261     339.647E-03     334.368E-03
             716            1261     339.647E-03     334.368E-03
             722            1261     339.647E-03     334.368E-03
             721            1261     339.647E-03     334.368E-03
             723            1262     361.589E-03     356.037E-03
             717            1262     361.589E-03     356.037E-03
             722            1262     361.589E-03     356.037E-03
             718            1262     361.589E-03     356.037E-03
             718            1263     382.953E-03     375.216E-03
             724            1263     382.953E-03     375.216E-03
             723            1263     382.953E-03     375.216E-03
             719            1263     382.953E-03     375.216E-03
             720            1264     390.050E-03     376.492E-03
             725            1264     390.050E-03     376.492E-03
             724            1264     390.050E-03     376.492E-03
             719            1264     390.050E-03     376.492E-03
             721            1265     342.821E-03     351.292E-03
             722            1265     342.821E-03     351.292E-03
             726            1265     342.821E-03     351.292E-03
             727            1265     342.821E-03     351.292E-03
             722            1266     371.663E-03     393.474E-03
             727            1266     371.663E-03     393.474E-03
             723            1266     371.663E-03     393.474E-03
             728            1266     371.663E-03     393.474E-03
             723            1267     392.323E-03     435.269E-03
             724            1267     392.323E-03     435.269E-03
             728            1267     392.323E-03     435.269E-03
             729            1267     392.323E-03     435.269E-03
             725            1268     422.328E-03     464.759E-03
             724            1268     422.328E-03     464.759E-03
             730            1268     422.328E-03     464.759E-03
             729            1268     422.328E-03     464.759E-03
             727            1269     364.834E-03     359.678E-03
             726            1269     364.834E-03     359.678E-03
             731            1269     364.834E-03     359.678E-03
             732            1269     364.834E-03     359.678E-03
             732            1270     432.125E-03     404.838E-03
             728            1270     432.125E-03     404.838E-03
             727            1270     432.125E-03     404.838E-03
             733            1270     432.125E-03     404.838E-03
             728            1271     493.767E-03     462.908E-03
             734            1271     493.767E-03     462.908E-03
             733            1271     493.767E-03     462.908E-03
             729            1271     493.767E-03     462.908E-03
             729            1272     545.381E-03     521.270E-03
             735            1272     545.381E-03     521.270E-03
             734            1272     545.381E-03     521.270E-03
             730            1272     545.381E-03     521.270E-03
             732            1273     367.354E-03     355.326E-03
             736            1273     367.354E-03     355.326E-03
             731            1273     367.354E-03     355.326E-03
             737            1273     367.354E-03     355.326E-03
             737            1274     444.525E-03     425.003E-03
             732            1274     444.525E-03     425.003E-03
             738            1274     444.525E-03     425.003E-03
             733            1274     444.525E-03     425.003E-03
             734            1275     521.366E-03     512.860E-03
             739            1275     521.366E-03     512.860E-03
             733            1275     521.366E-03     512.860E-03
             738            1275     521.366E-03     512.860E-03
             734            1276     608.579E-03     606.256E-03
             740            1276     608.579E-03     606.256E-03
             735            1276     608.579E-03     606.256E-03
             739            1276     608.579E-03     606.256E-03
             737            1277     349.536E-03     358.542E-03
             736            1277     349.536E-03     358.542E-03
             741            1277     349.536E-03     358.542E-03
             742            1277     349.536E-03     358.542E-03
             743            1278     401.452E-03     449.299E-03
             738            1278     401.452E-03     449.299E-03
             737            1278     401.452E-03     449.299E-03
             742            1278     401.452E-03     449.299E-03
             738            1279     468.576E-03     568.319E-03
             743            1279     468.576E-03     568.319E-03
             744            1279     468.576E-03     568.319E-03
             739            1279     468.576E-03     568.319E-03
             739            1280     544.405E-03     639.333E-03
             744            1280     544.405E-03     639.333E-03
             740            1280     544.405E-03     639.333E-03
             745            1280     544.405E-03     639.333E-03
             742            1281     365.267E-03     362.093E-03
             746            1281     365.267E-03     362.093E-03
             741            1281     365.267E-03     362.093E-03
             747            1281     365.267E-03     362.093E-03
             742            1282     440.363E-03     441.524E-03
             748            1282     440.363E-03     441.524E-03
             747            1282     440.363E-03     441.524E-03
             743            1282     440.363E-03     441.524E-03
             749            1283     536.985E-03     540.186E-03
             748            1283     536.985E-03     540.186E-03
             744            1283     536.985E-03     540.186E-03
             743            1283     536.985E-03     540.186E-03
             749            1284     583.529E-03     568.646E-03
             744            1284     583.529E-03     568.646E-03
             750            1284     583.529E-03     568.646E-03
             745            1284     583.529E-03     568.646E-03
             752            1285     383.324E-03     378.018E-03
             747            1285     383.324E-03     378.018E-03
             746            1285     383.324E-03     378.018E-03
             751            1285     383.324E-03     378.018E-03
             748            1286     478.965E-03     475.207E-03
             752            1286     478.965E-03     475.207E-03
             753            1286     478.965E-03     475.207E-03
             747            1286     478.965E-03     475.207E-03
             754            1287     568.342E-03     571.425E-03
             748            1287     568.342E-03     571.425E-03
             753            1287     568.342E-03     571.425E-03
             749            1287     568.342E-03     571.425E-03
             755            1288     616.885E-03     619.999E-03
             749            1288     616.885E-03     619.999E-03
             750            1288     616.885E-03     619.999E-03
             754            1288     616.885E-03     619.999E-03
             751            1289     397.423E-03     394.366E-03
             757            1289     397.423E-03     394.366E-03
             752            1289     397.423E-03     394.366E-03
             756            1289     397.423E-03     394.366E-03
             753            1290     498.133E-03     498.498E-03
             758            1290     498.133E-03     498.498E-03
             752            1290     498.133E-03     498.498E-03
             757            1290     498.133E-03     498.498E-03
             759            1291     586.513E-03     597.282E-03
             754            1291     586.513E-03     597.282E-03
             753            1291     586.513E-03     597.282E-03
             758            1291     586.513E-03     597.282E-03
             754            1292     661.353E-03     669.931E-03
             755            1292     661.353E-03     669.931E-03
             760            1292     661.353E-03     669.931E-03
             759            1292     661.353E-03     669.931E-03
             756            1293     401.830E-03     413.299E-03
             762            1293     401.830E-03     413.299E-03
             757            1293     401.830E-03     413.299E-03
             761            1293     401.830E-03     413.299E-03
             758            1294     518.740E-03     538.461E-03
             762            1294     518.740E-03     538.461E-03
             763            1294     518.740E-03     538.461E-03
             757            1294     518.740E-03     538.461E-03
             758            1295     617.348E-03     664.793E-03
             759            1295     617.348E-03     664.793E-03
             763            1295     617.348E-03     664.793E-03
             764            1295     617.348E-03     664.793E-03
             760            1296     709.984E-03     758.208E-03
             764            1296     709.984E-03     758.208E-03
             765            1296     709.984E-03     758.208E-03
             759            1296     709.984E-03     758.208E-03
             766            1297     431.918E-03     423.235E-03
             762            1297     431.918E-03     423.235E-03
             767            1297     431.918E-03     423.235E-03
             761            1297     431.918E-03     423.235E-03
             768            1298     597.306E-03     557.960E-03
             763            1298     597.306E-03     557.960E-03
             767            1298     597.306E-03     557.960E-03
             762            1298     597.306E-03     557.960E-03
             769            1299     739.176E-03     706.629E-03
             768            1299     739.176E-03     706.629E-03
             763            1299     739.176E-03     706.629E-03
             764            1299     739.176E-03     706.629E-03
             769            1300     844.300E-03     822.411E-03
             765            1300     844.300E-03     822.411E-03
             764            1300     844.300E-03     822.411E-03
             770            1300     844.300E-03     822.411E-03
             767            1301     430.097E-03     412.915E-03
             772            1301     430.097E-03     412.915E-03
             771            1301     430.097E-03     412.915E-03
             766            1301     430.097E-03     412.915E-03
             772            1302     605.614E-03     577.987E-03
             767            1302     605.614E-03     577.987E-03
             768            1302     605.614E-03     577.987E-03
             773            1302     605.614E-03     577.987E-03
             769            1303     771.297E-03     758.436E-03
             773            1303     771.297E-03     758.436E-03
             768            1303     771.297E-03     758.436E-03
             774            1303     771.297E-03     758.436E-03
             770            1304     915.790E-03     906.715E-03
             775            1304     915.790E-03     906.715E-03
             774            1304     915.790E-03     906.715E-03
             769            1304     915.790E-03     906.715E-03
             772            1305     397.385E-03     417.312E-03
             777            1305     397.385E-03     417.312E-03
             771            1305     397.385E-03     417.312E-03
             776            1305     397.385E-03     417.312E-03
             772            1306     531.088E-03     611.933E-03
             778            1306     531.088E-03     611.933E-03
             773            1306     531.088E-03     611.933E-03
             777            1306     531.088E-03     611.933E-03
             779            1307     678.360E-03     834.269E-03
             774            1307     678.360E-03     834.269E-03
             773            1307     678.360E-03     834.269E-03
             778            1307     678.360E-03     834.269E-03
             780            1308     815.253E-03     959.855E-03
             779            1308     815.253E-03     959.855E-03
             774            1308     815.253E-03     959.855E-03
             775            1308     815.253E-03     959.855E-03
             776            1309     424.439E-03     419.023E-03
             781            1309     424.439E-03     419.023E-03
             782            1309     424.439E-03     419.023E-03
             777            1309     424.439E-03     419.023E-03
             783            1310     593.135E-03     589.307E-03
             782            1310     593.135E-03     589.307E-03
             778            1310     593.135E-03     589.307E-03
             777            1310     593.135E-03     589.307E-03
             783            1311     774.741E-03     775.392E-03
             779            1311     774.741E-03     775.392E-03
             778            1311     774.741E-03     775.392E-03
             784            1311     774.741E-03     775.392E-03
             780            1312     875.356E-03     855.551E-03
             779            1312     875.356E-03     855.551E-03
             785            1312     875.356E-03     855.551E-03
             784            1312     875.356E-03     855.551E-03
             786            1313     450.978E-03     440.876E-03
             782            1313     450.978E-03     440.876E-03
             787            1313     450.978E-03     440.876E-03
             781            1313     450.978E-03     440.876E-03
             788            1314     642.176E-03     628.350E-03
             783            1314     642.176E-03     628.350E-03
             782            1314     642.176E-03     628.350E-03
             787            1314     642.176E-03     628.350E-03
             783            1315     807.783E-03     803.821E-03
             789            1315     807.783E-03     803.821E-03
             784            1315     807.783E-03     803.821E-03
             788            1315     807.783E-03     803.821E-03
             790            1316     902.396E-03     901.817E-03
             789            1316     902.396E-03     901.817E-03
             785            1316     902.396E-03     901.817E-03
             784            1316     902.396E-03     901.817E-03
             792            1317     464.989E-03     462.595E-03
             786            1317     464.989E-03     462.595E-03
             791            1317     464.989E-03     462.595E-03
             787            1317     464.989E-03     462.595E-03
             788            1318     651.000E-03     654.891E-03
             787            1318     651.000E-03     654.891E-03
             792            1318     651.000E-03     654.891E-03
             793            1318     651.000E-03     654.891E-03
             788            1319     805.361E-03     828.304E-03
             794            1319     805.361E-03     828.304E-03
             793            1319     805.361E-03     828.304E-03
             789            1319     805.361E-03     828.304E-03
             789            1320     929.329E-03     949.822E-03
             794            1320     929.329E-03     949.822E-03
             795            1320     929.329E-03     949.822E-03
             790            1320     929.329E-03     949.822E-03
             791            1321     469.031E-03     484.505E-03
             797            1321     469.031E-03     484.505E-03
             796            1321     469.031E-03     484.505E-03
             792            1321     469.031E-03     484.505E-03
             792            1322     673.062E-03     697.078E-03
             797            1322     673.062E-03     697.078E-03
             793            1322     673.062E-03     697.078E-03
             798            1322     673.062E-03     697.078E-03
             798            1323     836.770E-03     896.774E-03
             799            1323     836.770E-03     896.774E-03
             794            1323     836.770E-03     896.774E-03
             793            1323     836.770E-03     896.774E-03
             799            1324     977.951E-03         1.03802
             795            1324     977.951E-03         1.03802
             794            1324     977.951E-03         1.03802
             800            1324     977.951E-03         1.03802
             796            1325     504.680E-03     493.656E-03
             801            1325     504.680E-03     493.656E-03
             797            1325     504.680E-03     493.656E-03
             802            1325     504.680E-03     493.656E-03
             798            1326     767.282E-03     716.789E-03
             797            1326     767.282E-03     716.789E-03
             802            1326     767.282E-03     716.789E-03
             803            1326     767.282E-03     716.789E-03
             804            1327     981.022E-03     941.276E-03
             799            1327     981.022E-03     941.276E-03
             803            1327     981.022E-03     941.276E-03
             798            1327     981.022E-03     941.276E-03
             805            1328         1.12983         1.10426
             804            1328         1.12983         1.10426
             799            1328         1.12983         1.10426
             800            1328         1.12983         1.10426
             802            1329     497.389E-03     476.295E-03
             801            1329     497.389E-03     476.295E-03
             806            1329     497.389E-03     476.295E-03
             807            1329     497.389E-03     476.295E-03
             802            1330     768.907E-03     734.739E-03
             803            1330     768.907E-03     734.739E-03
             808            1330     768.907E-03     734.739E-03
             807            1330     768.907E-03     734.739E-03
             809            1331         1.01324     997.346E-03
             808            1331         1.01324     997.346E-03
             803            1331         1.01324     997.346E-03
             804            1331         1.01324     997.346E-03
             804            1332         1.20781         1.19387
             810            1332         1.20781         1.19387
             809            1332         1.20781         1.19387
             805            1332         1.20781         1.19387
             811            1333     452.624E-03     485.399E-03
             812            1333     452.624E-03     485.399E-03
             806            1333     452.624E-03     485.399E-03
             807            1333     452.624E-03     485.399E-03
             812            1334     666.894E-03     779.913E-03
             813            1334     666.894E-03     779.913E-03
             807            1334     666.894E-03     779.913E-03
             808            1334     666.894E-03     779.913E-03
             808            1335     882.562E-03         1.09102
             809            1335     882.562E-03         1.09102
             813            1335     882.562E-03         1.09102
             814            1335     882.562E-03         1.09102
             815            1336         1.07716         1.26676
             809            1336         1.07716         1.26676
             810            1336         1.07716         1.26676
             814            1336         1.07716         1.26676
             817            1337     497.164E-03     491.169E-03
             812            1337     497.164E-03     491.169E-03
             816            1337     497.164E-03     491.169E-03
             811            1337     497.164E-03     491.169E-03
             817            1338     762.089E-03     747.892E-03
             818            1338     762.089E-03     747.892E-03
             812            1338     762.089E-03     747.892E-03
             813            1338     762.089E-03     747.892E-03
             814            1339         1.01678         1.01399
             819            1339         1.01678         1.01399
             818            1339         1.01678         1.01399
             813            1339         1.01678         1.01399
             819            1340         1.16044         1.14756
             815            1340         1.16044         1.14756
             814            1340         1.16044         1.14756
             820            1340         1.16044         1.14756
             821            1341     531.173E-03     510.904E-03
             817            1341     531.173E-03     510.904E-03
             822            1341     531.173E-03     510.904E-03
             816            1341     531.173E-03     510.904E-03
             817            1342     820.832E-03     777.460E-03
             818            1342     820.832E-03     777.460E-03
             822            1342     820.832E-03     777.460E-03
             823            1342     820.832E-03     777.460E-03
             819            1343         1.06287         1.01502
             823            1343         1.06287         1.01502
             824            1343         1.06287         1.01502
             818            1343         1.06287         1.01502
             819            1344         1.20681         1.15926
             824            1344         1.20681         1.15926
             820            1344         1.20681         1.15926
             825            1344         1.20681         1.15926
             821            1345     521.080E-03     554.289E-03
             822            1345     521.080E-03     554.289E-03
             826            1345     521.080E-03     554.289E-03
             827            1345     521.080E-03     554.289E-03
             823            1346     786.562E-03     855.155E-03
             828            1346     786.562E-03     855.155E-03
             827            1346     786.562E-03     855.155E-03
             822            1346     786.562E-03     855.155E-03
             823            1347     986.436E-03         1.11539
             829            1347     986.436E-03         1.11539
             828            1347     986.436E-03         1.11539
             824            1347     986.436E-03         1.11539
             824            1348         1.15632         1.28109
             830            1348         1.15632         1.28109
             825            1348         1.15632         1.28109
             829            1348         1.15632         1.28109
             826            1349     566.024E-03     553.342E-03
             832            1349     566.024E-03     553.342E-03
             831            1349     566.024E-03     553.342E-03
             827            1349     566.024E-03     553.342E-03
             827            1350     907.953E-03     840.869E-03
             832            1350     907.953E-03     840.869E-03
             833            1350     907.953E-03     840.869E-03
             828            1350     907.953E-03     840.869E-03
             829            1351         1.18082         1.10931
             828            1351         1.18082         1.10931
             833            1351         1.18082         1.10931
             834            1351         1.18082         1.10931
             829            1352         1.36261         1.30482
             834            1352         1.36261         1.30482
             835            1352         1.36261         1.30482
             830            1352         1.36261         1.30482
             831            1353     555.322E-03     532.466E-03
             832            1353     555.322E-03     532.466E-03
             837            1353     555.322E-03     532.466E-03
             836            1353     555.322E-03     532.466E-03
             837            1354     902.707E-03     862.536E-03
             838            1354     902.707E-03     862.536E-03
             833            1354     902.707E-03     862.536E-03
             832            1354     902.707E-03     862.536E-03
             838            1355         1.20285         1.18539
             839            1355         1.20285         1.18539
             834            1355         1.20285         1.18539
             833            1355         1.20285         1.18539
             840            1356         1.43204         1.42204
             835            1356         1.43204         1.42204
             839            1356         1.43204         1.42204
             834            1356         1.43204         1.42204
            1618            2006     532.110E-06     533.292E-06
            1623            2006     532.110E-06     533.292E-06
            1624            2006     532.110E-06     533.292E-06
            1619            2006     532.110E-06     533.292E-06
            1620            2007     462.781E-06     459.052E-06
            1619            2007     462.781E-06     459.052E-06
            1624            2007     462.781E-06     459.052E-06
            1625            2007     462.781E-06     459.052E-06
            1621            2008     484.048E-06     469.183E-06
            1625            2008     484.048E-06     469.183E-06
            1626            2008     484.048E-06     469.183E-06
            1620            2008     484.048E-06     469.183E-06
            1626            2009     509.363E-06     494.572E-06
            1621            2009     509.363E-06     494.572E-06
            1627            2009     509.363E-06     494.572E-06
            1622            2009     509.363E-06     494.572E-06
            1623            2010     416.654E-06     396.765E-06
            1628            2010     416.654E-06     396.765E-06
            1629            2010     416.654E-06     396.765E-06
            1624            2010     416.654E-06     396.765E-06
            1624            2011     414.811E-06     386.320E-06
            1630            2011     414.811E-06     386.320E-06
            1625            2011     414.811E-06     386.320E-06
            1629            2011     414.811E-06     386.320E-06
            1630            2012     463.633E-06     440.759E-06
            1631            2012     463.633E-06     440.759E-06
            1625            2012     463.633E-06     440.759E-06
            1626            2012     463.633E-06     440.759E-06
            1631            2013     503.881E-06     495.136E-06
            1632            2013     503.881E-06     495.136E-06
            1627            2013     503.881E-06     495.136E-06
            1626            2013     503.881E-06     495.136E-06
            1628            2014     251.614E-06     274.857E-06
            1633            2014     251.614E-06     274.857E-06
            1634            2014     251.614E-06     274.857E-06
            1629            2014     251.614E-06     274.857E-06
            1629            2015     304.516E-06     324.682E-06
            1635            2015     304.516E-06     324.682E-06
            1630            2015     304.516E-06     324.682E-06
            1634            2015     304.516E-06     324.682E-06
            1635            2016     410.353E-06     422.654E-06
            1636            2016     410.353E-06     422.654E-06
            1630            2016     410.353E-06     422.654E-06
            1631            2016     410.353E-06     422.654E-06
            1636            2017     483.536E-06     486.052E-06
            1637            2017     483.536E-06     486.052E-06
            1632            2017     483.536E-06     486.052E-06
            1631            2017     483.536E-06     486.052E-06
            1634            2018     182.515E-06     160.509E-06
            1638            2018     182.515E-06     160.509E-06
            1633            2018     182.515E-06     160.509E-06
            1639            2018     182.515E-06     160.509E-06
            1640            2019     268.664E-06     259.272E-06
            1634            2019     268.664E-06     259.272E-06
            1635            2019     268.664E-06     259.272E-06
            1639            2019     268.664E-06     259.272E-06
            1635            2020     397.522E-06     396.205E-06
            1640            2020     397.522E-06     396.205E-06
            1636            2020     397.522E-06     396.205E-06
            1641            2020     397.522E-06     396.205E-06
            1642            2021     484.885E-06     477.690E-06
            1636            2021     484.885E-06     477.690E-06
            1637            2021     484.885E-06     477.690E-06
            1641            2021     484.885E-06     477.690E-06
            1643            2022     143.898E-06     179.083E-06
            1639            2022     143.898E-06     179.083E-06
            1644            2022     143.898E-06     179.083E-06
            1638            2022     143.898E-06     179.083E-06
            1639            2023     242.616E-06     255.634E-06
            1645            2023     242.616E-06     255.634E-06
            1640            2023     242.616E-06     255.634E-06
            1644            2023     242.616E-06     255.634E-06
            1640            2024     383.876E-06     384.769E-06
            1641            2024     383.876E-06     384.769E-06
            1645            2024     383.876E-06     384.769E-06
            1646            2024     383.876E-06     384.769E-06
            1641            2025     481.279E-06     472.828E-06
            1647            2025     481.279E-06     472.828E-06
            1646            2025     481.279E-06     472.828E-06
            1642            2025     481.279E-06     472.828E-06
            1654            2026         1.30155         1.37095
            1648            2026         1.30155         1.37095
            1653            2026         1.30155         1.37095
            1649            2026         1.30155         1.37095
            1650            2027         1.10500         1.18250
            1654            2027         1.10500         1.18250
            1649            2027         1.10500         1.18250
            1655            2027         1.10500         1.18250
            1655            2028     822.097E-03     866.459E-03
            1651            2028     822.097E-03     866.459E-03
            1656            2028     822.097E-03     866.459E-03
            1650            2028     822.097E-03     866.459E-03
            1652            2029     517.833E-03     536.240E-03
            1657            2029     517.833E-03     536.240E-03
            1651            2029     517.833E-03     536.240E-03
            1656            2029     517.833E-03     536.240E-03
            1653            2030         1.40363         1.44630
            1654            2030         1.40363         1.44630
            1659            2030         1.40363         1.44630
            1658            2030         1.40363         1.44630
            1659            2031         1.21801         1.26915
            1660            2031         1.21801         1.26915
            1654            2031         1.21801         1.26915
            1655            2031         1.21801         1.26915
            1655            2032     920.213E-03     942.237E-03
            1656            2032     920.213E-03     942.237E-03
            1661            2032     920.213E-03     942.237E-03
            1660            2032     920.213E-03     942.237E-03
            1661            2033     581.050E-03     603.503E-03
            1656            2033     581.050E-03     603.503E-03
            1662            2033     581.050E-03     603.503E-03
            1657            2033     581.050E-03     603.503E-03
            1663            2034         1.57792         1.47461
            1658            2034         1.57792         1.47461
            1659            2034         1.57792         1.47461
            1664            2034         1.57792         1.47461
            1659            2035         1.39816         1.28783
            1660            2035         1.39816         1.28783
            1664            2035         1.39816         1.28783
            1665            2035         1.39816         1.28783
            1660            2036         1.06824     980.696E-03
            1661            2036         1.06824     980.696E-03
            1666            2036         1.06824     980.696E-03
            1665            2036         1.06824     980.696E-03
            1662            2037     649.010E-03     627.879E-03
            1661            2037     649.010E-03     627.879E-03
            1666            2037     649.010E-03     627.879E-03
            1667            2037     649.010E-03     627.879E-03
            1668            2038         1.57265         1.60313
            1664            2038         1.57265         1.60313
            1669            2038         1.57265         1.60313
            1663            2038         1.57265         1.60313
            1669            2039         1.33054         1.35316
            1670            2039         1.33054         1.35316
            1664            2039         1.33054         1.35316
            1665            2039         1.33054         1.35316
            1666            2040         1.01256         1.00597
            1670            2040         1.01256         1.00597
            1665            2040         1.01256         1.00597
            1671            2040         1.01256         1.00597
            1667            2041     631.001E-03     624.695E-03
            1666            2041     631.001E-03     624.695E-03
            1671            2041     631.001E-03     624.695E-03
            1672            2041     631.001E-03     624.695E-03
            1833            2162     864.079E-03     865.156E-03
            1838            2162     864.079E-03     865.156E-03
            1834            2162     864.079E-03     865.156E-03
            1839            2162     864.079E-03     865.156E-03
            1839            2163         1.05956         1.07094
            1834            2163         1.05956         1.07094
            1840            2163         1.05956         1.07094
            1835            2163         1.05956         1.07094
            1840            2164         1.26601         1.28625
            1835            2164         1.26601         1.28625
            1836            2164         1.26601         1.28625
            1841            2164         1.26601         1.28625
            1841            2165         1.40621         1.43212
            1842            2165         1.40621         1.43212
            1837            2165         1.40621         1.43212
            1836            2165         1.40621         1.43212
            1843            2166     893.036E-03     892.896E-03
            1839            2166     893.036E-03     892.896E-03
            1844            2166     893.036E-03     892.896E-03
            1838            2166     893.036E-03     892.896E-03
            1840            2167         1.02944         1.06071
            1845            2167         1.02944         1.06071
            1844            2167         1.02944         1.06071
            1839            2167         1.02944         1.06071
            1841            2168         1.17266         1.25327
            1845            2168         1.17266         1.25327
            1840            2168         1.17266         1.25327
            1846            2168         1.17266         1.25327
            1846            2169         1.30708         1.40153
            1847            2169         1.30708         1.40153
            1842            2169         1.30708         1.40153
            1841            2169         1.30708         1.40153
            1849            2170     857.599E-03     835.255E-03
            1848            2170     857.599E-03     835.255E-03
            1844            2170     857.599E-03     835.255E-03
            1843            2170     857.599E-03     835.255E-03
            1850            2171         1.02418     990.123E-03
            1849            2171         1.02418     990.123E-03
            1844            2171         1.02418     990.123E-03
            1845            2171         1.02418     990.123E-03
            1850            2172         1.18149         1.15589
            1845            2172         1.18149         1.15589
            1846            2172         1.18149         1.15589
            1851            2172         1.18149         1.15589
            1851            2173         1.32021         1.31358
            1852            2173         1.32021         1.31358
            1846            2173         1.32021         1.31358
            1847            2173         1.32021         1.31358
            1849            2174     844.373E-03     833.632E-03
            1853            2174     844.373E-03     833.632E-03
            1854            2174     844.373E-03     833.632E-03
            1848            2174     844.373E-03     833.632E-03
            1849            2175     989.434E-03     939.657E-03
            1855            2175     989.434E-03     939.657E-03
            1854            2175     989.434E-03     939.657E-03
            1850            2175     989.434E-03     939.657E-03
            1851            2176         1.14404         1.07183
            1850            2176         1.14404         1.07183
            1856            2176         1.14404         1.07183
            1855            2176         1.14404         1.07183
            1851            2177         1.20103         1.10550
            1856            2177         1.20103         1.10550
            1857            2177         1.20103         1.10550
            1852            2177         1.20103         1.10550
            1858            2178     99.4795E-03     107.000E-03
            1863            2178     99.4795E-03     107.000E-03
            1859            2178     99.4795E-03     107.000E-03
            1864            2178     99.4795E-03     107.000E-03
            1860            2179     160.644E-03     161.996E-03
            1864            2179     160.644E-03     161.996E-03
            1859            2179     160.644E-03     161.996E-03
            1865            2179     160.644E-03     161.996E-03
            1865            2180     212.402E-03     212.791E-03
            1866            2180     212.402E-03     212.791E-03
            1860            2180     212.402E-03     212.791E-03
            1861            2180     212.402E-03     212.791E-03
            1867            2181     250.229E-03     248.866E-03
            1866            2181     250.229E-03     248.866E-03
            1862            2181     250.229E-03     248.866E-03
            1861            2181     250.229E-03     248.866E-03
            1868            2182     96.9481E-03     110.817E-03
            1869            2182     96.9481E-03     110.817E-03
            1863            2182     96.9481E-03     110.817E-03
            1864            2182     96.9481E-03     110.817E-03
            1870            2183     184.585E-03     191.313E-03
            1864            2183     184.585E-03     191.313E-03
            1869            2183     184.585E-03     191.313E-03
            1865            2183     184.585E-03     191.313E-03
            1865            2184     253.665E-03     257.451E-03
            1870            2184     253.665E-03     257.451E-03
            1866            2184     253.665E-03     257.451E-03
            1871            2184     253.665E-03     257.451E-03
            1867            2185     307.397E-03     304.025E-03
            1871            2185     307.397E-03     304.025E-03
            1872            2185     307.397E-03     304.025E-03
            1866            2185     307.397E-03     304.025E-03
            1869            2186     114.033E-03     117.906E-03
            1874            2186     114.033E-03     117.906E-03
            1868            2186     114.033E-03     117.906E-03
            1873            2186     114.033E-03     117.906E-03
            1870            2187     195.087E-03     200.434E-03
            1875            2187     195.087E-03     200.434E-03
            1874            2187     195.087E-03     200.434E-03
            1869            2187     195.087E-03     200.434E-03
            1876            2188     262.245E-03     267.172E-03
            1870            2188     262.245E-03     267.172E-03
            1871            2188     262.245E-03     267.172E-03
            1875            2188     262.245E-03     267.172E-03
            1877            2189     309.190E-03     308.054E-03
            1871            2189     309.190E-03     308.054E-03
            1876            2189     309.190E-03     308.054E-03
            1872            2189     309.190E-03     308.054E-03
            1874            2190     173.660E-03     160.675E-03
            1873            2190     173.660E-03     160.675E-03
            1879            2190     173.660E-03     160.675E-03
            1878            2190     173.660E-03     160.675E-03
            1879            2191     222.141E-03     214.068E-03
            1875            2191     222.141E-03     214.068E-03
            1880            2191     222.141E-03     214.068E-03
            1874            2191     222.141E-03     214.068E-03
            1881            2192     276.384E-03     274.963E-03
            1880            2192     276.384E-03     274.963E-03
            1875            2192     276.384E-03     274.963E-03
            1876            2192     276.384E-03     274.963E-03
            1882            2193     312.359E-03     311.266E-03
            1877            2193     312.359E-03     311.266E-03
            1876            2193     312.359E-03     311.266E-03
            1881            2193     312.359E-03     311.266E-03
            1883            2194     218.687E-03     242.676E-03
            1879            2194     218.687E-03     242.676E-03
            1884            2194     218.687E-03     242.676E-03
            1878            2194     218.687E-03     242.676E-03
            1879            2195     243.700E-03     263.767E-03
            1880            2195     243.700E-03     263.767E-03
            1884            2195     243.700E-03     263.767E-03
            1885            2195     243.700E-03     263.767E-03
            1886            2196     286.187E-03     295.383E-03
            1885            2196     286.187E-03     295.383E-03
            1880            2196     286.187E-03     295.383E-03
            1881            2196     286.187E-03     295.383E-03
            1887            2197     314.461E-03     318.106E-03
            1882            2197     314.461E-03     318.106E-03
            1881            2197     314.461E-03     318.106E-03
            1886            2197     314.461E-03     318.106E-03
            1884            2198     316.627E-03     301.640E-03
            1883            2198     316.627E-03     301.640E-03
            1888            2198     316.627E-03     301.640E-03
            1889            2198     316.627E-03     301.640E-03
            1890            2199     312.682E-03     295.714E-03
            1889            2199     312.682E-03     295.714E-03
            1884            2199     312.682E-03     295.714E-03
            1885            2199     312.682E-03     295.714E-03
            1891            2200     322.148E-03     307.042E-03
            1885            2200     322.148E-03     307.042E-03
            1886            2200     322.148E-03     307.042E-03
            1890            2200     322.148E-03     307.042E-03
            1887            2201     328.000E-03     323.917E-03
            1886            2201     328.000E-03     323.917E-03
            1891            2201     328.000E-03     323.917E-03
            1892            2201     328.000E-03     323.917E-03
            1889            2202     375.876E-03     376.148E-03
            1893            2202     375.876E-03     376.148E-03
            1888            2202     375.876E-03     376.148E-03
            1894            2202     375.876E-03     376.148E-03
            1889            2203     339.465E-03     335.263E-03
            1894            2203     339.465E-03     335.263E-03
            1895            2203     339.465E-03     335.263E-03
            1890            2203     339.465E-03     335.263E-03
            1890            2204     334.581E-03     323.068E-03
            1896            2204     334.581E-03     323.068E-03
            1891            2204     334.581E-03     323.068E-03
            1895            2204     334.581E-03     323.068E-03
            1897            2205     331.374E-03     322.467E-03
            1896            2205     331.374E-03     322.467E-03
            1892            2205     331.374E-03     322.467E-03
            1891            2205     331.374E-03     322.467E-03
            1899            2206     327.799E-03     380.155E-03
            1894            2206     327.799E-03     380.155E-03
            1893            2206     327.799E-03     380.155E-03
            1898            2206     327.799E-03     380.155E-03
            1900            2207     309.157E-03     363.357E-03
            1894            2207     309.157E-03     363.357E-03
            1899            2207     309.157E-03     363.357E-03
            1895            2207     309.157E-03     363.357E-03
            1896            2208     311.344E-03     334.747E-03
            1895            2208     311.344E-03     334.747E-03
            1901            2208     311.344E-03     334.747E-03
            1900            2208     311.344E-03     334.747E-03
            1901            2209     320.912E-03     322.648E-03
            1896            2209     320.912E-03     322.648E-03
            1897            2209     320.912E-03     322.648E-03
            1902            2209     320.912E-03     322.648E-03
            1904            2210     336.641E-03     331.970E-03
            1903            2210     336.641E-03     331.970E-03
            1898            2210     336.641E-03     331.970E-03
            1899            2210     336.641E-03     331.970E-03
            1904            2211     347.813E-03     352.022E-03
            1900            2211     347.813E-03     352.022E-03
            1899            2211     347.813E-03     352.022E-03
            1905            2211     347.813E-03     352.022E-03
            1906            2212     332.147E-03     333.489E-03
            1900            2212     332.147E-03     333.489E-03
            1905            2212     332.147E-03     333.489E-03
            1901            2212     332.147E-03     333.489E-03
            1902            2213     327.770E-03     326.262E-03
            1901            2213     327.770E-03     326.262E-03
            1906            2213     327.770E-03     326.262E-03
            1907            2213     327.770E-03     326.262E-03
            1903            2214     388.192E-03     374.747E-03
            1904            2214     388.192E-03     374.747E-03
            1908            2214     388.192E-03     374.747E-03
            1909            2214     388.192E-03     374.747E-03
            1904            2215     381.118E-03     373.523E-03
            1909            2215     381.118E-03     373.523E-03
            1910            2215     381.118E-03     373.523E-03
            1905            2215     381.118E-03     373.523E-03
            1910            2216     360.042E-03     354.626E-03
            1911            2216     360.042E-03     354.626E-03
            1906            2216     360.042E-03     354.626E-03
            1905            2216     360.042E-03     354.626E-03
            1912            2217     338.753E-03     333.532E-03
            1906            2217     338.753E-03     333.532E-03
            1907            2217     338.753E-03     333.532E-03
            1911            2217     338.753E-03     333.532E-03
            1914            2218     420.646E-03     462.903E-03
            1913            2218     420.646E-03     462.903E-03
            1909            2218     420.646E-03     462.903E-03
            1908            2218     420.646E-03     462.903E-03
            1915            2219     390.669E-03     433.391E-03
            1910            2219     390.669E-03     433.391E-03
            1914            2219     390.669E-03     433.391E-03
            1909            2219     390.669E-03     433.391E-03
            1916            2220     370.227E-03     391.852E-03
            1910            2220     370.227E-03     391.852E-03
            1915            2220     370.227E-03     391.852E-03
            1911            2220     370.227E-03     391.852E-03
            1911            2221     341.955E-03     350.278E-03
            1917            2221     341.955E-03     350.278E-03
            1916            2221     341.955E-03     350.278E-03
            1912            2221     341.955E-03     350.278E-03
            1914            2222     543.478E-03     519.486E-03
            1919            2222     543.478E-03     519.486E-03
            1918            2222     543.478E-03     519.486E-03
            1913            2222     543.478E-03     519.486E-03
            1920            2223     491.825E-03     461.111E-03
            1915            2223     491.825E-03     461.111E-03
            1914            2223     491.825E-03     461.111E-03
            1919            2223     491.825E-03     461.111E-03
            1920            2224     430.411E-03     403.282E-03
            1916            2224     430.411E-03     403.282E-03
            1915            2224     430.411E-03     403.282E-03
            1921            2224     430.411E-03     403.282E-03
            1916            2225     363.757E-03     358.695E-03
            1921            2225     363.757E-03     358.695E-03
            1922            2225     363.757E-03     358.695E-03
            1917            2225     363.757E-03     358.695E-03
            1919            2226     606.660E-03     604.397E-03
            1923            2226     606.660E-03     604.397E-03
            1924            2226     606.660E-03     604.397E-03
            1918            2226     606.660E-03     604.397E-03
            1919            2227     519.462E-03     511.015E-03
            1920            2227     519.462E-03     511.015E-03
            1925            2227     519.462E-03     511.015E-03
            1924            2227     519.462E-03     511.015E-03
            1920            2228     442.867E-03     423.396E-03
            1921            2228     442.867E-03     423.396E-03
            1926            2228     442.867E-03     423.396E-03
            1925            2228     442.867E-03     423.396E-03
            1921            2229     366.324E-03     354.318E-03
            1922            2229     366.324E-03     354.318E-03
            1927            2229     366.324E-03     354.318E-03
            1926            2229     366.324E-03     354.318E-03
            1924            2230     542.694E-03     637.329E-03
            1928            2230     542.694E-03     637.329E-03
            1923            2230     542.694E-03     637.329E-03
            1929            2230     542.694E-03     637.329E-03
            1929            2231     466.964E-03     566.345E-03
            1924            2231     466.964E-03     566.345E-03
            1930            2231     466.964E-03     566.345E-03
            1925            2231     466.964E-03     566.345E-03
            1931            2232     400.071E-03     447.595E-03
            1925            2232     400.071E-03     447.595E-03
            1926            2232     400.071E-03     447.595E-03
            1930            2232     400.071E-03     447.595E-03
            1932            2233     348.710E-03     357.500E-03
            1927            2233     348.710E-03     357.500E-03
            1931            2233     348.710E-03     357.500E-03
            1926            2233     348.710E-03     357.500E-03
            1929            2234     581.626E-03     566.810E-03
            1934            2234     581.626E-03     566.810E-03
            1933            2234     581.626E-03     566.810E-03
            1928            2234     581.626E-03     566.810E-03
            1930            2235     535.069E-03     538.366E-03
            1935            2235     535.069E-03     538.366E-03
            1929            2235     535.069E-03     538.366E-03
            1934            2235     535.069E-03     538.366E-03
            1936            2236     438.628E-03     439.930E-03
            1935            2236     438.628E-03     439.930E-03
            1930            2236     438.628E-03     439.930E-03
            1931            2236     438.628E-03     439.930E-03
            1937            2237     364.180E-03     361.111E-03
            1936            2237     364.180E-03     361.111E-03
            1932            2237     364.180E-03     361.111E-03
            1931            2237     364.180E-03     361.111E-03
            1939            2238     614.993E-03     618.169E-03
            1938            2238     614.993E-03     618.169E-03
            1933            2238     614.993E-03     618.169E-03
            1934            2238     614.993E-03     618.169E-03
            1935            2239     566.355E-03     569.540E-03
            1934            2239     566.355E-03     569.540E-03
            1940            2239     566.355E-03     569.540E-03
            1939            2239     566.355E-03     569.540E-03
            1936            2240     477.087E-03     473.459E-03
            1940            2240     477.087E-03     473.459E-03
            1941            2240     477.087E-03     473.459E-03
            1935            2240     477.087E-03     473.459E-03
            1942            2241     382.093E-03     376.843E-03
            1937            2241     382.093E-03     376.843E-03
            1936            2241     382.093E-03     376.843E-03
            1941            2241     382.093E-03     376.843E-03
            1938            2242     659.575E-03     668.103E-03
            1943            2242     659.575E-03     668.103E-03
            1944            2242     659.575E-03     668.103E-03
            1939            2242     659.575E-03     668.103E-03
            1945            2243     584.664E-03     595.367E-03
            1940            2243     584.664E-03     595.367E-03
            1944            2243     584.664E-03     595.367E-03
            1939            2243     584.664E-03     595.367E-03
            1940            2244     496.362E-03     496.692E-03
            1941            2244     496.362E-03     496.692E-03
            1946            2244     496.362E-03     496.692E-03
            1945            2244     496.362E-03     496.692E-03
            1941            2245     396.210E-03     393.107E-03
            1942            2245     396.210E-03     393.107E-03
            1946            2245     396.210E-03     393.107E-03
            1947            2245     396.210E-03     393.107E-03
            1949            2246     708.196E-03     756.373E-03
            1944            2246     708.196E-03     756.373E-03
            1948            2246     708.196E-03     756.373E-03
            1943            2246     708.196E-03     756.373E-03
            1950            2247     615.476E-03     662.851E-03
            1949            2247     615.476E-03     662.851E-03
            1945            2247     615.476E-03     662.851E-03
            1944            2247     615.476E-03     662.851E-03
            1945            2248     516.940E-03     536.606E-03
            1951            2248     516.940E-03     536.606E-03
            1950            2248     516.940E-03     536.606E-03
            1946            2248     516.940E-03     536.606E-03
            1947            2249     400.564E-03     411.965E-03
            1946            2249     400.564E-03     411.965E-03
            1952            2249     400.564E-03     411.965E-03
            1951            2249     400.564E-03     411.965E-03
            1948            2250     842.381E-03     820.559E-03
            1949            2250     842.381E-03     820.559E-03
            1954            2250     842.381E-03     820.559E-03
            1953            2250     842.381E-03     820.559E-03
            1950            2251     737.137E-03     704.682E-03
            1949            2251     737.137E-03     704.682E-03
            1955            2251     737.137E-03     704.682E-03
            1954            2251     737.137E-03     704.682E-03
            1950            2252     595.351E-03     556.112E-03
            1956            2252     595.351E-03     556.112E-03
            1951            2252     595.351E-03     556.112E-03
            1955            2252     595.351E-03     556.112E-03
            1956            2253     430.524E-03     421.924E-03
            1951            2253     430.524E-03     421.924E-03
            1957            2253     430.524E-03     421.924E-03
            1952            2253     430.524E-03     421.924E-03
            1958            2254     913.838E-03     904.834E-03
            1954            2254     913.838E-03     904.834E-03
            1953            2254     913.838E-03     904.834E-03
            1959            2254     913.838E-03     904.834E-03
            1960            2255     769.305E-03     756.503E-03
            1955            2255     769.305E-03     756.503E-03
            1959            2255     769.305E-03     756.503E-03
            1954            2255     769.305E-03     756.503E-03
            1961            2256     603.742E-03     576.164E-03
            1955            2256     603.742E-03     576.164E-03
            1956            2256     603.742E-03     576.164E-03
            1960            2256     603.742E-03     576.164E-03
            1961            2257     428.785E-03     411.636E-03
            1957            2257     428.785E-03     411.636E-03
            1956            2257     428.785E-03     411.636E-03
            1962            2257     428.785E-03     411.636E-03
            1959            2258     813.510E-03     957.819E-03
            1963            2258     813.510E-03     957.819E-03
            1964            2258     813.510E-03     957.819E-03
            1958            2258     813.510E-03     957.819E-03
            1959            2259     676.659E-03     832.215E-03
            1960            2259     676.659E-03     832.215E-03
            1965            2259     676.659E-03     832.215E-03
            1964            2259     676.659E-03     832.215E-03
            1960            2260     529.499E-03     610.022E-03
            1965            2260     529.499E-03     610.022E-03
            1961            2260     529.499E-03     610.022E-03
            1966            2260     529.499E-03     610.022E-03
            1962            2261     396.312E-03     415.990E-03
            1961            2261     396.312E-03     415.990E-03
            1967            2261     396.312E-03     415.990E-03
            1966            2261     396.312E-03     415.990E-03
            1963            2262     873.429E-03     853.691E-03
            1968            2262     873.429E-03     853.691E-03
            1969            2262     873.429E-03     853.691E-03
            1964            2262     873.429E-03     853.691E-03
            1969            2263     772.752E-03     773.493E-03
            1970            2263     772.752E-03     773.493E-03
            1964            2263     772.752E-03     773.493E-03
            1965            2263     772.752E-03     773.493E-03
            1966            2264     591.208E-03     587.513E-03
            1971            2264     591.208E-03     587.513E-03
            1970            2264     591.208E-03     587.513E-03
            1965            2264     591.208E-03     587.513E-03
            1967            2265     423.081E-03     417.778E-03
            1972            2265     423.081E-03     417.778E-03
            1966            2265     423.081E-03     417.778E-03
            1971            2265     423.081E-03     417.778E-03
            1973            2266     900.488E-03     899.972E-03
            1969            2266     900.488E-03     899.972E-03
            1968            2266     900.488E-03     899.972E-03
            1974            2266     900.488E-03     899.972E-03
            1974            2267     805.734E-03     801.872E-03
            1969            2267     805.734E-03     801.872E-03
            1970            2267     805.734E-03     801.872E-03
            1975            2267     805.734E-03     801.872E-03
            1976            2268     640.127E-03     626.433E-03
            1970            2268     640.127E-03     626.433E-03
            1971            2268     640.127E-03     626.433E-03
            1975            2268     640.127E-03     626.433E-03
            1977            2269     449.482E-03     439.442E-03
            1971            2269     449.482E-03     439.442E-03
            1976            2269     449.482E-03     439.442E-03
            1972            2269     449.482E-03     439.442E-03
            1973            2270     927.539E-03     947.985E-03
            1978            2270     927.539E-03     947.985E-03
            1979            2270     927.539E-03     947.985E-03
            1974            2270     927.539E-03     947.985E-03
            1974            2271     803.459E-03     826.336E-03
            1980            2271     803.459E-03     826.336E-03
            1979            2271     803.459E-03     826.336E-03
            1975            2271     803.459E-03     826.336E-03
            1980            2272     649.085E-03     652.934E-03
            1976            2272     649.085E-03     652.934E-03
            1975            2272     649.085E-03     652.934E-03
            1981            2272     649.085E-03     652.934E-03
            1981            2273     463.548E-03     461.088E-03
            1976            2273     463.548E-03     461.088E-03
            1982            2273     463.548E-03     461.088E-03
            1977            2273     463.548E-03     461.088E-03
            1978            2274     976.155E-03         1.03618
            1983            2274     976.155E-03         1.03618
            1979            2274     976.155E-03         1.03618
            1984            2274     976.155E-03         1.03618
            1984            2275     834.855E-03     894.791E-03
            1979            2275     834.855E-03     894.791E-03
            1985            2275     834.855E-03     894.791E-03
            1980            2275     834.855E-03     894.791E-03
            1985            2276     671.133E-03     695.098E-03
            1986            2276     671.133E-03     695.098E-03
            1980            2276     671.133E-03     695.098E-03
            1981            2276     671.133E-03     695.098E-03
            1981            2277     467.543E-03     482.951E-03
            1982            2277     467.543E-03     482.951E-03
            1987            2277     467.543E-03     482.951E-03
            1986            2277     467.543E-03     482.951E-03
            1984            2278         1.12790         1.10240
            1989            2278         1.12790         1.10240
            1988            2278         1.12790         1.10240
            1983            2278         1.12790         1.10240
            1989            2279     978.951E-03     939.295E-03
            1990            2279     978.951E-03     939.295E-03
            1985            2279     978.951E-03     939.295E-03
            1984            2279     978.951E-03     939.295E-03
            1991            2280     765.218E-03     714.830E-03
            1985            2280     765.218E-03     714.830E-03
            1986            2280     765.218E-03     714.830E-03
            1990            2280     765.218E-03     714.830E-03
            1987            2281     503.075E-03     492.147E-03
            1991            2281     503.075E-03     492.147E-03
            1992            2281     503.075E-03     492.147E-03
            1986            2281     503.075E-03     492.147E-03
            1988            2282         1.20585         1.19198
            1989            2282         1.20585         1.19198
            1994            2282         1.20585         1.19198
            1993            2282         1.20585         1.19198
            1990            2283         1.01122     995.386E-03
            1994            2283         1.01122     995.386E-03
            1989            2283         1.01122     995.386E-03
            1995            2283         1.01122     995.386E-03
            1991            2284     766.938E-03     732.823E-03
            1995            2284     766.938E-03     732.823E-03
            1996            2284     766.938E-03     732.823E-03
            1990            2284     766.938E-03     732.823E-03
            1992            2285     495.886E-03     474.832E-03
            1996            2285     495.886E-03     474.832E-03
            1991            2285     495.886E-03     474.832E-03
            1997            2285     495.886E-03     474.832E-03
            1998            2286         1.07541         1.26473
            1994            2286         1.07541         1.26473
            1999            2286         1.07541         1.26473
            1993            2286         1.07541         1.26473
            1995            2287     880.837E-03         1.08894
            1999            2287     880.837E-03         1.08894
            2000            2287     880.837E-03         1.08894
            1994            2287     880.837E-03         1.08894
            1996            2288     665.206E-03     777.903E-03
            2000            2288     665.206E-03     777.903E-03
            1995            2288     665.206E-03     777.903E-03
            2001            2288     665.206E-03     777.903E-03
            2002            2289     451.380E-03     483.878E-03
            2001            2289     451.380E-03     483.878E-03
            1996            2289     451.380E-03     483.878E-03
            1997            2289     451.380E-03     483.878E-03
            2003            2290         1.15852         1.14570
            2004            2290         1.15852         1.14570
            1998            2290         1.15852         1.14570
            1999            2290         1.15852         1.14570
            1999            2291         1.01477         1.01206
            2004            2291         1.01477         1.01206
            2005            2291         1.01477         1.01206
            2000            2291         1.01477         1.01206
            2000            2292     760.066E-03     745.996E-03
            2001            2292     760.066E-03     745.996E-03
            2006            2292     760.066E-03     745.996E-03
            2005            2292     760.066E-03     745.996E-03
            2007            2293     495.605E-03     489.729E-03
            2006            2293     495.605E-03     489.729E-03
            2002            2293     495.605E-03     489.729E-03
            2001            2293     495.605E-03     489.729E-03
            2008            2294         1.20489         1.15746
            2009            2294         1.20489         1.15746
            2003            2294         1.20489         1.15746
            2004            2294         1.20489         1.15746
            2005            2295         1.06079         1.01308
            2010            2295         1.06079         1.01308
            2009            2295         1.06079         1.01308
            2004            2295         1.06079         1.01308
            2006            2296     818.708E-03     775.492E-03
            2011            2296     818.708E-03     775.492E-03
            2005            2296     818.708E-03     775.492E-03
            2010            2296     818.708E-03     775.492E-03
            2006            2297     529.492E-03     509.311E-03
            2011            2297     529.492E-03     509.311E-03
            2012            2297     529.492E-03     509.311E-03
            2007            2297     529.492E-03     509.311E-03
            2014            2298         1.15460         1.27920
            2013            2298         1.15460         1.27920
            2008            2298         1.15460         1.27920
            2009            2298         1.15460         1.27920
            2015            2299     984.585E-03         1.11333
            2014            2299     984.585E-03         1.11333
            2010            2299     984.585E-03         1.11333
            2009            2299     984.585E-03         1.11333
            2015            2300     784.652E-03     853.047E-03
            2011            2300     784.652E-03     853.047E-03
            2010            2300     784.652E-03     853.047E-03
            2016            2300     784.652E-03     853.047E-03
            2011            2301     519.551E-03     552.539E-03
            2016            2301     519.551E-03     552.539E-03
            2012            2301     519.551E-03     552.539E-03
            2017            2301     519.551E-03     552.539E-03
            2013            2302         1.36068         1.30301
            2018            2302         1.36068         1.30301
            2014            2302         1.36068         1.30301
            2019            2302         1.36068         1.30301
            2019            2303         1.17874         1.10736
            2015            2303         1.17874         1.10736
            2014            2303         1.17874         1.10736
            2020            2303         1.17874         1.10736
            2016            2304     905.833E-03     838.900E-03
            2015            2304     905.833E-03     838.900E-03
            2021            2304     905.833E-03     838.900E-03
            2020            2304     905.833E-03     838.900E-03
            2021            2305     564.279E-03     551.733E-03
            2016            2305     564.279E-03     551.733E-03
            2017            2305     564.279E-03     551.733E-03
            2022            2305     564.279E-03     551.733E-03
            2018            2306         1.43010         1.42016
            2019            2306         1.43010         1.42016
            2024            2306         1.43010         1.42016
            2023            2306         1.43010         1.42016
            2024            2307         1.20083         1.18342
            2020            2307         1.20083         1.18342
            2025            2307         1.20083         1.18342
            2019            2307         1.20083         1.18342
            2020            2308     900.690E-03     860.581E-03
            2026            2308     900.690E-03     860.581E-03
            2021            2308     900.690E-03     860.581E-03
            2025            2308     900.690E-03     860.581E-03
            2021            2309     553.688E-03     530.868E-03
            2026            2309     553.688E-03     530.868E-03
            2027            2309     553.688E-03     530.868E-03
            2022            2309     553.688E-03     530.868E-03
            2151            2384         1.41603         1.44214
            2146            2384         1.41603         1.44214
            2150            2384         1.41603         1.44214
            2145            2384         1.41603         1.44214
            2146            2385         1.27306         1.29379
            2151            2385         1.27306         1.29379
            2147            2385         1.27306         1.29379
            2152            2385         1.27306         1.29379
            2147            2386         1.06536         1.07760
            2148            2386         1.06536         1.07760
            2153            2386         1.06536         1.07760
            2152            2386         1.06536         1.07760
            2153            2387     867.527E-03     869.573E-03
            2154            2387     867.527E-03     869.573E-03
            2149            2387     867.527E-03     869.573E-03
            2148            2387     867.527E-03     869.573E-03
            2150            2388         1.31667         1.41117
            2156            2388         1.31667         1.41117
            2155            2388         1.31667         1.41117
            2151            2388         1.31667         1.41117
            2157            2389         1.17580         1.25858
            2151            2389         1.17580         1.25858
            2152            2389         1.17580         1.25858
            2156            2389         1.17580         1.25858
            2158            2390         1.03013         1.06378
            2153            2390         1.03013         1.06378
            2152            2390         1.03013         1.06378
            2157            2390         1.03013         1.06378
            2159            2391     893.201E-03     894.497E-03
            2154            2391     893.201E-03     894.497E-03
            2158            2391     893.201E-03     894.497E-03
            2153            2391     893.201E-03     894.497E-03
            2161            2392         1.32926         1.32203
            2155            2392         1.32926         1.32203
            2156            2392         1.32926         1.32203
            2160            2392         1.32926         1.32203
            2162            2393         1.18417         1.15961
            2157            2393         1.18417         1.15961
            2161            2393         1.18417         1.15961
            2156            2393         1.18417         1.15961
            2163            2394         1.02479     992.276E-03
            2162            2394         1.02479     992.276E-03
            2158            2394         1.02479     992.276E-03
            2157            2394         1.02479     992.276E-03
            2159            2395     857.673E-03     836.535E-03
            2164            2395     857.673E-03     836.535E-03
            2163            2395     857.673E-03     836.535E-03
            2158            2395     857.673E-03     836.535E-03
            2160            2396         1.20327         1.10733
            2161            2396         1.20327         1.10733
            2166            2396         1.20327         1.10733
            2165            2396         1.20327         1.10733
            2162            2397         1.14437         1.06923
            2161            2397         1.14437         1.06923
            2166            2397         1.14437         1.06923
            2167            2397         1.14437         1.06923
            2162            2398     988.754E-03     935.772E-03
            2163            2398     988.754E-03     935.772E-03
            2167            2398     988.754E-03     935.772E-03
            2168            2398     988.754E-03     935.772E-03
            2164            2399     843.209E-03     830.710E-03
            2168            2399     843.209E-03     830.710E-03
            2169            2399     843.209E-03     830.710E-03
            2163            2399     843.209E-03     830.710E-03
            2171            2400     800.608E-03     780.444E-03
            2170            2400     800.608E-03     780.444E-03
            2176            2400     800.608E-03     780.444E-03
            2175            2400     800.608E-03     780.444E-03
            2172            2401     874.631E-03     848.683E-03
            2171            2401     874.631E-03     848.683E-03
            2176            2401     874.631E-03     848.683E-03
            2177            2401     874.631E-03     848.683E-03
            2172            2402     941.828E-03     924.411E-03
            2178            2402     941.828E-03     924.411E-03
            2173            2402     941.828E-03     924.411E-03
            2177            2402     941.828E-03     924.411E-03
            2179            2403         1.01548         1.01654
            2174            2403         1.01548         1.01654
            2173            2403         1.01548         1.01654
            2178            2403         1.01548         1.01654
            2180            2404     793.535E-03     781.921E-03
            2175            2404     793.535E-03     781.921E-03
            2181            2404     793.535E-03     781.921E-03
            2176            2404     793.535E-03     781.921E-03
            2182            2405     851.720E-03     807.450E-03
            2181            2405     851.720E-03     807.450E-03
            2176            2405     851.720E-03     807.450E-03
            2177            2405     851.720E-03     807.450E-03
            2178            2406     921.989E-03     851.685E-03
            2183            2406     921.989E-03     851.685E-03
            2182            2406     921.989E-03     851.685E-03
            2177            2406     921.989E-03     851.685E-03
            2179            2407     917.774E-03     821.602E-03
            2183            2407     917.774E-03     821.602E-03
            2178            2407     917.774E-03     821.602E-03
            2184            2407     917.774E-03     821.602E-03
            2181            2408     765.285E-03     780.425E-03
            2185            2408     765.285E-03     780.425E-03
            2186            2408     765.285E-03     780.425E-03
            2180            2408     765.285E-03     780.425E-03
            2187            2409     760.960E-03     823.464E-03
            2182            2409     760.960E-03     823.464E-03
            2181            2409     760.960E-03     823.464E-03
            2186            2409     760.960E-03     823.464E-03
            2188            2410     749.997E-03     896.599E-03
            2182            2410     749.997E-03     896.599E-03
            2187            2410     749.997E-03     896.599E-03
            2183            2410     749.997E-03     896.599E-03
            2189            2411     785.382E-03     936.650E-03
            2183            2411     785.382E-03     936.650E-03
            2184            2411     785.382E-03     936.650E-03
            2188            2411     785.382E-03     936.650E-03
            2190            2412     801.789E-03     780.194E-03
            2185            2412     801.789E-03     780.194E-03
            2191            2412     801.789E-03     780.194E-03
            2186            2412     801.789E-03     780.194E-03
            2187            2413     807.434E-03     779.746E-03
            2191            2413     807.434E-03     779.746E-03
            2186            2413     807.434E-03     779.746E-03
            2192            2413     807.434E-03     779.746E-03
            2193            2414     813.052E-03     803.217E-03
            2188            2414     813.052E-03     803.217E-03
            2192            2414     813.052E-03     803.217E-03
            2187            2414     813.052E-03     803.217E-03
            2188            2415     894.334E-03     896.027E-03
            2189            2415     894.334E-03     896.027E-03
            2193            2415     894.334E-03     896.027E-03
            2194            2415     894.334E-03     896.027E-03
            2190            2416     795.097E-03     785.156E-03
            2195            2416     795.097E-03     785.156E-03
            2196            2416     795.097E-03     785.156E-03
            2191            2416     795.097E-03     785.156E-03
            2196            2417     781.193E-03     744.434E-03
            2192            2417     781.193E-03     744.434E-03
            2197            2417     781.193E-03     744.434E-03
            2191            2417     781.193E-03     744.434E-03
            2197            2418     755.215E-03     712.118E-03
            2192            2418     755.215E-03     712.118E-03
            2198            2418     755.215E-03     712.118E-03
            2193            2418     755.215E-03     712.118E-03
            2199            2419     758.575E-03     719.612E-03
            2193            2419     758.575E-03     719.612E-03
            2194            2419     758.575E-03     719.612E-03
            2198            2419     758.575E-03     719.612E-03
            2195            2420     763.694E-03     772.297E-03
            2201            2420     763.694E-03     772.297E-03
            2200            2420     763.694E-03     772.297E-03
            2196            2420     763.694E-03     772.297E-03
            2197            2421     697.956E-03     719.393E-03
            2202            2421     697.956E-03     719.393E-03
            2196            2421     697.956E-03     719.393E-03
            2201            2421     697.956E-03     719.393E-03
            2202            2422     594.227E-03     640.894E-03
            2203            2422     594.227E-03     640.894E-03
            2197            2422     594.227E-03     640.894E-03
            2198            2422     594.227E-03     640.894E-03
            2203            2423     526.346E-03     583.141E-03
            2198            2423     526.346E-03     583.141E-03
            2204            2423     526.346E-03     583.141E-03
            2199            2423     526.346E-03     583.141E-03
            2200            2424     758.989E-03     756.532E-03
            2205            2424     758.989E-03     756.532E-03
            2206            2424     758.989E-03     756.532E-03
            2201            2424     758.989E-03     756.532E-03
            2207            2425     675.348E-03     672.756E-03
            2201            2425     675.348E-03     672.756E-03
            2206            2425     675.348E-03     672.756E-03
            2202            2425     675.348E-03     672.756E-03
            2203            2426     544.651E-03     526.479E-03
            2208            2426     544.651E-03     526.479E-03
            2202            2426     544.651E-03     526.479E-03
            2207            2426     544.651E-03     526.479E-03
            2209            2427     420.785E-03     390.003E-03
            2204            2427     420.785E-03     390.003E-03
            2208            2427     420.785E-03     390.003E-03
            2203            2427     420.785E-03     390.003E-03
            2205            2428     752.102E-03     749.127E-03
            2211            2428     752.102E-03     749.127E-03
            2206            2428     752.102E-03     749.127E-03
            2210            2428     752.102E-03     749.127E-03
            2211            2429     643.210E-03     654.599E-03
            2206            2429     643.210E-03     654.599E-03
            2212            2429     643.210E-03     654.599E-03
            2207            2429     643.210E-03     654.599E-03
            2213            2430     483.161E-03     495.919E-03
            2212            2430     483.161E-03     495.919E-03
            2207            2430     483.161E-03     495.919E-03
            2208            2430     483.161E-03     495.919E-03
            2208            2431     284.003E-03     291.187E-03
            2209            2431     284.003E-03     291.187E-03
            2214            2431     284.003E-03     291.187E-03
            2213            2431     284.003E-03     291.187E-03
            2216            2432     747.579E-03     739.123E-03
            2210            2432     747.579E-03     739.123E-03
            2211            2432     747.579E-03     739.123E-03
            2215            2432     747.579E-03     739.123E-03
            2212            2433     622.595E-03     630.677E-03
            2211            2433     622.595E-03     630.677E-03
            2216            2433     622.595E-03     630.677E-03
            2217            2433     622.595E-03     630.677E-03
            2218            2434     458.778E-03     474.003E-03
            2217            2434     458.778E-03     474.003E-03
            2212            2434     458.778E-03     474.003E-03
            2213            2434     458.778E-03     474.003E-03
            2213            2435     245.597E-03     276.202E-03
            2218            2435     245.597E-03     276.202E-03
            2219            2435     245.597E-03     276.202E-03
            2214            2435     245.597E-03     276.202E-03
            2220            2436     608.241E-03     604.724E-03
            2221            2436     608.241E-03     604.724E-03
            2216            2436     608.241E-03     604.724E-03
            2215            2436     608.241E-03     604.724E-03
            2217            2437     520.828E-03     521.091E-03
            2221            2437     520.828E-03     521.091E-03
            2216            2437     520.828E-03     521.091E-03
            2222            2437     520.828E-03     521.091E-03
            2222            2438     398.935E-03     401.175E-03
            2223            2438     398.935E-03     401.175E-03
            2218            2438     398.935E-03     401.175E-03
            2217            2438     398.935E-03     401.175E-03
            2219            2439     251.112E-03     267.633E-03
            2224            2439     251.112E-03     267.633E-03
            2223            2439     251.112E-03     267.633E-03
            2218            2439     251.112E-03     267.633E-03
            2727            2828     526.889E-03     549.915E-03
            2722            2828     526.889E-03     549.915E-03
            2721            2828     526.889E-03     549.915E-03
            2726            2828     526.889E-03     549.915E-03
            2728            2829     830.764E-03     881.151E-03
            2727            2829     830.764E-03     881.151E-03
            2723            2829     830.764E-03     881.151E-03
            2722            2829     830.764E-03     881.151E-03
            2728            2830         1.11303         1.19451
            2723            2830         1.11303         1.19451
            2729            2830         1.11303         1.19451
            2724            2830         1.11303         1.19451
            2724            2831         1.31063         1.37972
            2725            2831         1.31063         1.37972
            2730            2831         1.31063         1.37972
            2729            2831         1.31063         1.37972
            2726            2832     589.804E-03     611.220E-03
            2727            2832     589.804E-03     611.220E-03
            2732            2832     589.804E-03     611.220E-03
            2731            2832     589.804E-03     611.220E-03
            2732            2833     926.902E-03     950.201E-03
            2728            2833     926.902E-03     950.201E-03
            2733            2833     926.902E-03     950.201E-03
            2727            2833     926.902E-03     950.201E-03
            2734            2834         1.22294         1.27517
            2733            2834         1.22294         1.27517
            2728            2834         1.22294         1.27517
            2729            2834         1.22294         1.27517
            2729            2835         1.41197         1.45055
            2734            2835         1.41197         1.45055
            2730            2835         1.41197         1.45055
            2735            2835         1.41197         1.45055
            2731            2836     643.626E-03     624.109E-03
            2737            2836     643.626E-03     624.109E-03
            2732            2836     643.626E-03     624.109E-03
            2736            2836     643.626E-03     624.109E-03
            2732            2837         1.06018     975.653E-03
            2738            2837         1.06018     975.653E-03
            2737            2837         1.06018     975.653E-03
            2733            2837         1.06018     975.653E-03
            2734            2838         1.38857         1.28111
            2738            2838         1.38857         1.28111
            2739            2838         1.38857         1.28111
            2733            2838         1.38857         1.28111
            2734            2839         1.56607         1.46392
            2739            2839         1.56607         1.46392
            2740            2839         1.56607         1.46392
            2735            2839         1.56607         1.46392
            2737            2840     617.279E-03     608.621E-03
            2741            2840     617.279E-03     608.621E-03
            2736            2840     617.279E-03     608.621E-03
            2742            2840     617.279E-03     608.621E-03
            2743            2841     997.421E-03     987.688E-03
            2737            2841     997.421E-03     987.688E-03
            2738            2841     997.421E-03     987.688E-03
            2742            2841     997.421E-03     987.688E-03
            2743            2842         1.31307         1.33307
            2744            2842         1.31307         1.33307
            2738            2842         1.31307         1.33307
            2739            2842         1.31307         1.33307
            2744            2843         1.54484         1.57832
            2739            2843         1.54484         1.57832
            2740            2843         1.54484         1.57832
            2745            2843         1.54484         1.57832
            2764            2854         1.01705         1.01791
            2765            2854         1.01705         1.01791
            2769            2854         1.01705         1.01791
            2770            2854         1.01705         1.01791
            2771            2855     935.964E-03     919.796E-03
            2765            2855     935.964E-03     919.796E-03
            2770            2855     935.964E-03     919.796E-03
            2766            2855     935.964E-03     919.796E-03
            2772            2856     867.702E-03     843.304E-03
            2766            2856     867.702E-03     843.304E-03
            2767            2856     867.702E-03     843.304E-03
            2771            2856     867.702E-03     843.304E-03
            2772            2857     796.045E-03     776.947E-03
            2767            2857     796.045E-03     776.947E-03
            2768            2857     796.045E-03     776.947E-03
            2773            2857     796.045E-03     776.947E-03
            2769            2858     913.742E-03     817.284E-03
            2775            2858     913.742E-03     817.284E-03
            2770            2858     913.742E-03     817.284E-03
            2774            2858     913.742E-03     817.284E-03
            2776            2859     914.519E-03     841.717E-03
            2775            2859     914.519E-03     841.717E-03
            2771            2859     914.519E-03     841.717E-03
            2770            2859     914.519E-03     841.717E-03
            2771            2860     844.056E-03     797.327E-03
            2776            2860     844.056E-03     797.327E-03
            2772            2860     844.056E-03     797.327E-03
            2777            2860     844.056E-03     797.327E-03
            2773            2861     788.317E-03     775.509E-03
            2772            2861     788.317E-03     775.509E-03
            2778            2861     788.317E-03     775.509E-03
            2777            2861     788.317E-03     775.509E-03
            2774            2862     779.230E-03     932.108E-03
            2780            2862     779.230E-03     932.108E-03
            2775            2862     779.230E-03     932.108E-03
            2779            2862     779.230E-03     932.108E-03
            2775            2863     739.599E-03     888.925E-03
            2781            2863     739.599E-03     888.925E-03
            2780            2863     739.599E-03     888.925E-03
            2776            2863     739.599E-03     888.925E-03
            2781            2864     750.164E-03     815.151E-03
            2777            2864     750.164E-03     815.151E-03
            2782            2864     750.164E-03     815.151E-03
            2776            2864     750.164E-03     815.151E-03
            2782            2865     758.550E-03     774.953E-03
            2777            2865     758.550E-03     774.953E-03
            2783            2865     758.550E-03     774.953E-03
            2778            2865     758.550E-03     774.953E-03
            2785            2866     891.026E-03     892.374E-03
            2784            2866     891.026E-03     892.374E-03
            2779            2866     891.026E-03     892.374E-03
            2780            2866     891.026E-03     892.374E-03
            2785            2867     803.035E-03     794.063E-03
            2780            2867     803.035E-03     794.063E-03
            2781            2867     803.035E-03     794.063E-03
            2786            2867     803.035E-03     794.063E-03
            2787            2868     796.870E-03     770.317E-03
            2786            2868     796.870E-03     770.317E-03
            2781            2868     796.870E-03     770.317E-03
            2782            2868     796.870E-03     770.317E-03
            2782            2869     795.370E-03     774.391E-03
            2783            2869     795.370E-03     774.391E-03
            2787            2869     795.370E-03     774.391E-03
            2788            2869     795.370E-03     774.391E-03
            2789            2870     752.373E-03     713.622E-03
            2790            2870     752.373E-03     713.622E-03
            2785            2870     752.373E-03     713.622E-03
            2784            2870     752.373E-03     713.622E-03
            2786            2871     742.260E-03     698.496E-03
            2790            2871     742.260E-03     698.496E-03
            2791            2871     742.260E-03     698.496E-03
            2785            2871     742.260E-03     698.496E-03
            2787            2872     768.685E-03     730.927E-03
            2786            2872     768.685E-03     730.927E-03
            2792            2872     768.685E-03     730.927E-03
            2791            2872     768.685E-03     730.927E-03
            2788            2873     787.816E-03     777.241E-03
            2793            2873     787.816E-03     777.241E-03
            2787            2873     787.816E-03     777.241E-03
            2792            2873     787.816E-03     777.241E-03
            2794            2874     516.505E-03     574.397E-03
            2789            2874     516.505E-03     574.397E-03
            2790            2874     516.505E-03     574.397E-03
            2795            2874     516.505E-03     574.397E-03
            2796            2875     575.915E-03     624.436E-03
            2791            2875     575.915E-03     624.436E-03
            2795            2875     575.915E-03     624.436E-03
            2790            2875     575.915E-03     624.436E-03
            2791            2876     681.649E-03     704.208E-03
            2797            2876     681.649E-03     704.208E-03
            2796            2876     681.649E-03     704.208E-03
            2792            2876     681.649E-03     704.208E-03
            2792            2877     754.610E-03     763.609E-03
            2798            2877     754.610E-03     763.609E-03
            2793            2877     754.610E-03     763.609E-03
            2797            2877     754.610E-03     763.609E-03
            2795            2878     408.013E-03     377.266E-03
            2800            2878     408.013E-03     377.266E-03
            2799            2878     408.013E-03     377.266E-03
            2794            2878     408.013E-03     377.266E-03
            2800            2879     523.408E-03     504.763E-03
            2795            2879     523.408E-03     504.763E-03
            2801            2879     523.408E-03     504.763E-03
            2796            2879     523.408E-03     504.763E-03
            2797            2880     657.719E-03     654.932E-03
            2801            2880     657.719E-03     654.932E-03
            2802            2880     657.719E-03     654.932E-03
            2796            2880     657.719E-03     654.932E-03
            2803            2881     749.378E-03     746.775E-03
            2802            2881     749.378E-03     746.775E-03
            2797            2881     749.378E-03     746.775E-03
            2798            2881     749.378E-03     746.775E-03
            2800            2882     262.742E-03     274.073E-03
            2804            2882     262.742E-03     274.073E-03
            2805            2882     262.742E-03     274.073E-03
            2799            2882     262.742E-03     274.073E-03
            2801            2883     459.011E-03     471.346E-03
            2805            2883     459.011E-03     471.346E-03
            2806            2883     459.011E-03     471.346E-03
            2800            2883     459.011E-03     471.346E-03
            2807            2884     624.726E-03     635.973E-03
            2801            2884     624.726E-03     635.973E-03
            2806            2884     624.726E-03     635.973E-03
            2802            2884     624.726E-03     635.973E-03
            2808            2885     742.294E-03     739.196E-03
            2802            2885     742.294E-03     739.196E-03
            2803            2885     742.294E-03     739.196E-03
            2807            2885     742.294E-03     739.196E-03
            2810            2886     219.820E-03     258.451E-03
            2804            2886     219.820E-03     258.451E-03
            2809            2886     219.820E-03     258.451E-03
            2805            2886     219.820E-03     258.451E-03
            2811            2887     433.326E-03     449.863E-03
            2806            2887     433.326E-03     449.863E-03
            2805            2887     433.326E-03     449.863E-03
            2810            2887     433.326E-03     449.863E-03
            2812            2888     604.352E-03     613.364E-03
            2806            2888     604.352E-03     613.364E-03
            2807            2888     604.352E-03     613.364E-03
            2811            2888     604.352E-03     613.364E-03
            2812            2889     737.942E-03     730.091E-03
            2813            2889     737.942E-03     730.091E-03
            2808            2889     737.942E-03     730.091E-03
            2807            2889     737.942E-03     730.091E-03
            2814            2890     228.177E-03     248.706E-03
            2815            2890     228.177E-03     248.706E-03
            2810            2890     228.177E-03     248.706E-03
            2809            2890     228.177E-03     248.706E-03
            2816            2891     377.222E-03     380.377E-03
            2810            2891     377.222E-03     380.377E-03
            2811            2891     377.222E-03     380.377E-03
            2815            2891     377.222E-03     380.377E-03
            2816            2892     505.422E-03     506.369E-03
            2817            2892     505.422E-03     506.369E-03
            2811            2892     505.422E-03     506.369E-03
            2812            2892     505.422E-03     506.369E-03
            2817            2893     600.093E-03     597.086E-03
            2813            2893     600.093E-03     597.086E-03
            2818            2893     600.093E-03     597.086E-03
            2812            2893     600.093E-03     597.086E-03
            2858            2912     528.911E-06     530.368E-06
            2853            2912     528.911E-06     530.368E-06
            2852            2912     528.911E-06     530.368E-06
            2857            2912     528.911E-06     530.368E-06
            2854            2913     460.244E-06     456.750E-06
            2853            2913     460.244E-06     456.750E-06
            2858            2913     460.244E-06     456.750E-06
            2859            2913     460.244E-06     456.750E-06
            2854            2914     482.715E-06     468.005E-06
            2860            2914     482.715E-06     468.005E-06
            2859            2914     482.715E-06     468.005E-06
            2855            2914     482.715E-06     468.005E-06
            2856            2915     508.825E-06     494.082E-06
            2860            2915     508.825E-06     494.082E-06
            2861            2915     508.825E-06     494.082E-06
            2855            2915     508.825E-06     494.082E-06
            2858            2916     414.880E-06     394.434E-06
            2863            2916     414.880E-06     394.434E-06
            2862            2916     414.880E-06     394.434E-06
            2857            2916     414.880E-06     394.434E-06
            2858            2917     413.479E-06     384.523E-06
            2864            2917     413.479E-06     384.523E-06
            2863            2917     413.479E-06     384.523E-06
            2859            2917     413.479E-06     384.523E-06
            2859            2918     462.874E-06     439.895E-06
            2860            2918     462.874E-06     439.895E-06
            2865            2918     462.874E-06     439.895E-06
            2864            2918     462.874E-06     439.895E-06
            2865            2919     503.526E-06     494.721E-06
            2866            2919     503.526E-06     494.721E-06
            2861            2919     503.526E-06     494.721E-06
            2860            2919     503.526E-06     494.721E-06
            2863            2920     250.484E-06     273.670E-06
            2862            2920     250.484E-06     273.670E-06
            2868            2920     250.484E-06     273.670E-06
            2867            2920     250.484E-06     273.670E-06
            2863            2921     303.875E-06     323.914E-06
            2864            2921     303.875E-06     323.914E-06
            2868            2921     303.875E-06     323.914E-06
            2869            2921     303.875E-06     323.914E-06
            2865            2922     410.026E-06     422.260E-06
            2870            2922     410.026E-06     422.260E-06
            2869            2922     410.026E-06     422.260E-06
            2864            2922     410.026E-06     422.260E-06
            2871            2923     483.332E-06     485.810E-06
            2870            2923     483.332E-06     485.810E-06
            2865            2923     483.332E-06     485.810E-06
            2866            2923     483.332E-06     485.810E-06
            2868            2924     182.056E-06     160.346E-06
            2867            2924     182.056E-06     160.346E-06
            2873            2924     182.056E-06     160.346E-06
            2872            2924     182.056E-06     160.346E-06
            2873            2925     268.286E-06     259.275E-06
            2868            2925     268.286E-06     259.275E-06
            2869            2925     268.286E-06     259.275E-06
            2874            2925     268.286E-06     259.275E-06
            2875            2926     397.340E-06     396.106E-06
            2870            2926     397.340E-06     396.106E-06
            2874            2926     397.340E-06     396.106E-06
            2869            2926     397.340E-06     396.106E-06
            2870            2927     484.709E-06     477.515E-06
            2876            2927     484.709E-06     477.515E-06
            2871            2927     484.709E-06     477.515E-06
            2875            2927     484.709E-06     477.515E-06
            2877            2928     144.022E-06     179.023E-06
            2873            2928     144.022E-06     179.023E-06
            2878            2928     144.022E-06     179.023E-06
            2872            2928     144.022E-06     179.023E-06
            2873            2929     242.705E-06     255.516E-06
            2874            2929     242.705E-06     255.516E-06
            2879            2929     242.705E-06     255.516E-06
            2878            2929     242.705E-06     255.516E-06
            2879            2930     383.951E-06     384.671E-06
            2880            2930     383.951E-06     384.671E-06
            2874            2930     383.951E-06     384.671E-06
            2875            2930     383.951E-06     384.671E-06
            2876            2931     481.177E-06     472.702E-06
            2881            2931     481.177E-06     472.702E-06
            2880            2931     481.177E-06     472.702E-06
            2875            2931     481.177E-06     472.702E-06
            3192            3177     508.825E-06     494.082E-06
            3187            3177     508.825E-06     494.082E-06
            3188            3177     508.825E-06     494.082E-06
            3193            3177     508.825E-06     494.082E-06
            3193            3178     482.715E-06     468.005E-06
            3189            3178     482.715E-06     468.005E-06
            3188            3178     482.715E-06     468.005E-06
            3194            3178     482.715E-06     468.005E-06
            3194            3179     460.244E-06     456.750E-06
            3190            3179     460.244E-06     456.750E-06
            3195            3179     460.244E-06     456.750E-06
            3189            3179     460.244E-06     456.750E-06
            3195            3180     528.911E-06     530.368E-06
            3196            3180     528.911E-06     530.368E-06
            3190            3180     528.911E-06     530.368E-06
            3191            3180     528.911E-06     530.368E-06
            3198            3181     503.526E-06     494.721E-06
            3193            3181     503.526E-06     494.721E-06
            3197            3181     503.526E-06     494.721E-06
            3192            3181     503.526E-06     494.721E-06
            3194            3182     462.874E-06     439.895E-06
            3198            3182     462.874E-06     439.895E-06
            3193            3182     462.874E-06     439.895E-06
            3199            3182     462.874E-06     439.895E-06
            3199            3183     413.479E-06     384.523E-06
            3194            3183     413.479E-06     384.523E-06
            3200            3183     413.479E-06     384.523E-06
            3195            3183     413.479E-06     384.523E-06
            3200            3184     414.880E-06     394.434E-06
            3201            3184     414.880E-06     394.434E-06
            3195            3184     414.880E-06     394.434E-06
            3196            3184     414.880E-06     394.434E-06
            3203            3185     483.332E-06     485.810E-06
            3202            3185     483.332E-06     485.810E-06
            3197            3185     483.332E-06     485.810E-06
            3198            3185     483.332E-06     485.810E-06
            3199            3186     410.026E-06     422.260E-06
            3203            3186     410.026E-06     422.260E-06
            3204            3186     410.026E-06     422.260E-06
            3198            3186     410.026E-06     422.260E-06
            3204            3187     303.875E-06     323.914E-06
            3199            3187     303.875E-06     323.914E-06
            3200            3187     303.875E-06     323.914E-06
            3205            3187     303.875E-06     323.914E-06
            3205            3188     250.484E-06     273.670E-06
            3200            3188     250.484E-06     273.670E-06
            3201            3188     250.484E-06     273.670E-06
            3206            3188     250.484E-06     273.670E-06
            3203            3189     484.709E-06     477.515E-06
            3208            3189     484.709E-06     477.515E-06
            3202            3189     484.709E-06     477.515E-06
            3207            3189     484.709E-06     477.515E-06
            3203            3190     397.340E-06     396.106E-06
            3204            3190     397.340E-06     396.106E-06
            3208            3190     397.340E-06     396.106E-06
            3209            3190     397.340E-06     396.106E-06
            3205            3191     268.286E-06     259.275E-06
            3209            3191     268.286E-06     259.275E-06
            3210            3191     268.286E-06     259.275E-06
            3204            3191     268.286E-06     259.275E-06
            3210            3192     182.056E-06     160.346E-06
            3206            3192     182.056E-06     160.346E-06
            3205            3192     182.056E-06     160.346E-06
            3211            3192     182.056E-06     160.346E-06
            3213            3193     481.177E-06     472.702E-06
            3212            3193     481.177E-06     472.702E-06
            3207            3193     481.177E-06     472.702E-06
            3208            3193     481.177E-06     472.702E-06
            3214            3194     383.951E-06     384.671E-06
            3208            3194     383.951E-06     384.671E-06
            3213            3194     383.951E-06     384.671E-06
            3209            3194     383.951E-06     384.671E-06
            3214            3195     242.705E-06     255.516E-06
            3209            3195     242.705E-06     255.516E-06
            3210            3195     242.705E-06     255.516E-06
            3215            3195     242.705E-06     255.516E-06
            3215            3196     144.022E-06     179.023E-06
            3210            3196     144.022E-06     179.023E-06
            3211            3196     144.022E-06     179.023E-06
            3216            3196     144.022E-06     179.023E-06


  Minimum                            120.633E-06     145.888E-06
      At Element                            1643            3211
            Node                             151             597

  Maximum                                1.68918         1.77393
      At Element                            1668            2145
            Node                             317              16

           Total                     1.47623E+03     1.49725E+03


Field Output reported at element nodes for region: CRJ700-1.Region_2
   Computation algorithm: EXTRAPOLATE_COMPUTE_AVERAGE
   Averaged at nodes
   Averaging regions: ODB_REGIONS

   Element Label      Node Label         S.Mises         S.Mises
                                          @Loc 1          @Loc 2
-----------------------------------------------------------------
            2030               2     82.6375E-03     82.0167E-03
             841               2     82.6375E-03     82.0167E-03
             981               3         1.26840         1.22047
            2129               3         1.26840         1.22047
             963               5     82.7175E-03     82.0966E-03
             859               5     82.7175E-03     82.0966E-03
             978               6     463.000E-06     468.325E-06
             856               9     463.000E-06     468.325E-06
            2225              11         1.26895         1.22099
             958              11         1.26895         1.22099
             861              13     82.1878E-03     81.5797E-03
            2028              13     82.1878E-03     81.5797E-03
             843              13     82.1878E-03     81.5797E-03
             961              13     82.1878E-03     81.5797E-03
             976              14     611.072E-06     608.554E-06
             858              14     611.072E-06     608.554E-06
            2227              15     303.072E-03     304.274E-03
             960              15     303.072E-03     304.274E-03
            2127              15     303.072E-03     304.274E-03
             979              15     303.072E-03     304.274E-03
            2839              16         1.55660         1.51039
             993              16         1.55660         1.51039
             991              17     495.213E-03     495.469E-03
            2239              17     495.213E-03     495.469E-03
            2837              17     495.213E-03     495.469E-03
            2132              17     495.213E-03     495.469E-03
            2130              20         1.53820         1.50536
            2237              20         1.53820         1.50536
            2242              21         1.08542         1.04474
            2851              21         1.08542         1.04474
            2882              23         1.08218         1.04130
            2142              23         1.08218         1.04130
            2849              25     809.709E-03     810.043E-03
            2884              25     809.709E-03     810.043E-03
            2144              25     809.709E-03     810.043E-03
            2240              25     809.709E-03     810.043E-03
            2746              26     199.164E-03     197.684E-03
            2912              26     199.164E-03     197.684E-03
            2272              28     198.636E-03     197.156E-03
            2821              28     198.636E-03     197.156E-03
            2914              29     197.857E-03     196.386E-03
            2819              29     197.857E-03     196.386E-03
            2748              29     197.857E-03     196.386E-03
            2270              29     197.857E-03     196.386E-03
            2836              31     462.931E-06     468.200E-06
            2763              33     611.155E-06     608.693E-06
            2834              33     611.155E-06     608.693E-06
            2761              34     462.931E-06     468.200E-06
            2033              51     198.748E-03     198.994E-03
            2030              51     198.748E-03     198.994E-03
            2036              52     226.588E-03     232.054E-03
            2033              52     226.588E-03     232.054E-03
            2036              53     224.533E-03     231.071E-03
            2039              53     224.533E-03     231.071E-03
            2039              54     251.261E-03     252.683E-03
            2042              54     251.261E-03     252.683E-03
            2042              55     290.716E-03     289.892E-03
            2045              55     290.716E-03     289.892E-03
            2048              56     343.937E-03     342.762E-03
            2045              56     343.937E-03     342.762E-03
            2051              57     421.654E-03     413.352E-03
            2048              57     421.654E-03     413.352E-03
            2054              58     376.906E-03     357.973E-03
            2051              58     376.906E-03     357.973E-03
            2057              59     328.573E-03     327.127E-03
            2054              59     328.573E-03     327.127E-03
            2057              60     398.708E-03     409.060E-03
            2060              60     398.708E-03     409.060E-03
            2060              61     458.310E-03     458.357E-03
            2063              61     458.310E-03     458.357E-03
            2063              62     525.590E-03     526.336E-03
            2066              62     525.590E-03     526.336E-03
            2069              63     610.255E-03     594.346E-03
            2066              63     610.255E-03     594.346E-03
            2069              64     556.879E-03     513.848E-03
            2072              64     556.879E-03     513.848E-03
            2075              65     505.797E-03     493.892E-03
            2072              65     505.797E-03     493.892E-03
            2075              66     589.009E-03     601.436E-03
            2078              66     589.009E-03     601.436E-03
            2078              67     655.371E-03     653.328E-03
            2081              67     655.371E-03     653.328E-03
            2081              68     715.177E-03     710.587E-03
            2084              68     715.177E-03     710.587E-03
            2084              69     783.845E-03     782.881E-03
            2087              69     783.845E-03     782.881E-03
            2087              70     867.237E-03     842.115E-03
            2090              70     867.237E-03     842.115E-03
            2090              71     803.633E-03     736.204E-03
            2093              71     803.633E-03     736.204E-03
            2096              72     746.909E-03     725.459E-03
            2093              72     746.909E-03     725.459E-03
            2096              73     836.870E-03     850.842E-03
            2099              73     836.870E-03     850.842E-03
            2102              74     905.360E-03     901.592E-03
            2099              74     905.360E-03     901.592E-03
            2102              75     966.273E-03     959.992E-03
            2105              75     966.273E-03     959.992E-03
            2105              76         1.03598         1.03633
            2108              76         1.03598         1.03633
            2111              77         1.11779         1.08418
            2108              77         1.11779         1.08418
            2111              78         1.05182     965.284E-03
            2114              78         1.05182     965.284E-03
            2114              79         1.00242     975.029E-03
            2117              79         1.00242     975.029E-03
            2120              80         1.09842         1.11674
            2117              80         1.09842         1.11674
            2123              81         1.16446         1.16228
            2120              81         1.16446         1.16228
            2123              82         1.23820         1.24593
            2126              82         1.23820         1.24593
            2126              83         1.32020         1.28149
            2129              83         1.32020         1.28149
             966             147     665.112E-06     654.934E-06
             963             147     665.112E-06     654.934E-06
             969             148     530.156E-06     534.152E-06
             966             148     530.156E-06     534.152E-06
             972             149     448.171E-06     453.866E-06
             969             149     448.171E-06     453.866E-06
             972             150     412.016E-06     423.686E-06
             975             150     412.016E-06     423.686E-06
             975             151     433.589E-06     443.634E-06
             978             151     433.589E-06     443.634E-06
             841             176     665.112E-06     654.934E-06
             844             176     665.112E-06     654.934E-06
             847             177     530.156E-06     534.152E-06
             844             177     530.156E-06     534.152E-06
             847             178     448.171E-06     453.866E-06
             850             178     448.171E-06     453.866E-06
             853             179     412.016E-06     423.686E-06
             850             179     412.016E-06     423.686E-06
             856             180     433.589E-06     443.634E-06
             853             180     433.589E-06     443.634E-06
             859             194     198.417E-03     198.634E-03
             862             194     198.417E-03     198.634E-03
             865             195     226.208E-03     231.693E-03
             862             195     226.208E-03     231.693E-03
             865             196     224.942E-03     231.516E-03
             868             196     224.942E-03     231.516E-03
             868             197     252.168E-03     253.582E-03
             871             197     252.168E-03     253.582E-03
             871             198     291.904E-03     291.065E-03
             874             198     291.904E-03     291.065E-03
             874             199     345.350E-03     344.160E-03
             877             199     345.350E-03     344.160E-03
             877             200     423.267E-03     414.912E-03
             880             200     423.267E-03     414.912E-03
             883             201     378.251E-03     359.164E-03
             880             201     378.251E-03     359.164E-03
             886             202     329.735E-03     328.197E-03
             883             202     329.735E-03     328.197E-03
             886             203     400.121E-03     410.474E-03
             889             203     400.121E-03     410.474E-03
             892             204     459.825E-03     459.862E-03
             889             204     459.825E-03     459.862E-03
             892             205     527.202E-03     527.952E-03
             895             205     527.202E-03     527.952E-03
             895             206     611.982E-03     596.030E-03
             898             206     611.982E-03     596.030E-03
             898             207     558.517E-03     515.355E-03
             901             207     558.517E-03     515.355E-03
             901             208     507.323E-03     495.345E-03
             904             208     507.323E-03     495.345E-03
             904             209     590.595E-03     603.017E-03
             907             209     590.595E-03     603.017E-03
             910             210     656.998E-03     654.944E-03
             907             210     656.998E-03     654.944E-03
             913             211     716.831E-03     712.231E-03
             910             211     716.831E-03     712.231E-03
             913             212     785.539E-03     784.575E-03
             916             212     785.539E-03     784.575E-03
             916             213     869.012E-03     843.843E-03
             919             213     869.012E-03     843.843E-03
             919             214     805.374E-03     737.821E-03
             922             214     805.374E-03     737.821E-03
             925             215     748.563E-03     727.053E-03
             922             215     748.563E-03     727.053E-03
             928             216     838.527E-03     852.494E-03
             925             216     838.527E-03     852.494E-03
             931             217     907.034E-03     903.255E-03
             928             217     907.034E-03     903.255E-03
             934             218     967.960E-03     961.670E-03
             931             218     967.960E-03     961.670E-03
             934             219         1.03770         1.03805
             937             219         1.03770         1.03805
             937             220         1.11958         1.08592
             940             220         1.11958         1.08592
             943             221         1.05358     966.933E-03
             940             221         1.05358     966.933E-03
             946             222         1.00412     976.670E-03
             943             222         1.00412     976.670E-03
             946             223         1.10010         1.11842
             949             223         1.10010         1.11842
             949             224         1.16614         1.16395
             952             224         1.16614         1.16395
             955             225         1.23992         1.24765
             952             225         1.23992         1.24765
             958             226         1.32199         1.28323
             955             226         1.32199         1.28323
             842             264     82.4759E-03     81.8619E-03
            2030             264     82.4759E-03     81.8619E-03
             841             264     82.4759E-03     81.8619E-03
            2029             264     82.4759E-03     81.8619E-03
             843             265     82.2470E-03     81.6393E-03
            2029             265     82.2470E-03     81.6393E-03
            2028             265     82.2470E-03     81.6393E-03
             842             265     82.2470E-03     81.6393E-03
             846             266     608.073E-06     619.580E-06
             964             266     608.073E-06     619.580E-06
             961             266     608.073E-06     619.580E-06
             843             266     608.073E-06     619.580E-06
             964             267     660.093E-06     675.606E-06
             846             267     660.093E-06     675.606E-06
             967             267     660.093E-06     675.606E-06
             849             267     660.093E-06     675.606E-06
             967             268     682.250E-06     689.999E-06
             852             268     682.250E-06     689.999E-06
             970             268     682.250E-06     689.999E-06
             849             268     682.250E-06     689.999E-06
             855             269     661.534E-06     661.234E-06
             973             269     661.534E-06     661.234E-06
             970             269     661.534E-06     661.234E-06
             852             269     661.534E-06     661.234E-06
             858             270     626.680E-06     624.359E-06
             855             270     626.680E-06     624.359E-06
             976             270     626.680E-06     624.359E-06
             973             270     626.680E-06     624.359E-06
             858             271     595.931E-06     594.725E-06
             857             271     595.931E-06     594.725E-06
             856             272     521.895E-06     524.610E-06
             857             272     521.895E-06     524.610E-06
             860             273     82.5399E-03     81.9259E-03
             962             273     82.5399E-03     81.9259E-03
             963             273     82.5399E-03     81.9259E-03
             859             273     82.5399E-03     81.9259E-03
             962             274     82.2791E-03     81.6714E-03
             861             274     82.2791E-03     81.6714E-03
             860             274     82.2791E-03     81.6714E-03
             961             274     82.2791E-03     81.6714E-03
             864             275     244.028E-03     241.349E-03
            2028             275     244.028E-03     241.349E-03
             861             275     244.028E-03     241.349E-03
            2031             275     244.028E-03     241.349E-03
             864             276     333.630E-03     327.540E-03
            2031             276     333.630E-03     327.540E-03
             867             276     333.630E-03     327.540E-03
            2034             276     333.630E-03     327.540E-03
            2034             277     351.693E-03     344.460E-03
            2037             277     351.693E-03     344.460E-03
             867             277     351.693E-03     344.460E-03
             870             277     351.693E-03     344.460E-03
            2040             278     364.103E-03     360.348E-03
             873             278     364.103E-03     360.348E-03
            2037             278     364.103E-03     360.348E-03
             870             278     364.103E-03     360.348E-03
             876             279     366.847E-03     369.843E-03
             873             279     366.847E-03     369.843E-03
            2043             279     366.847E-03     369.843E-03
            2040             279     366.847E-03     369.843E-03
             876             280     352.544E-03     360.727E-03
             879             280     352.544E-03     360.727E-03
            2043             280     352.544E-03     360.727E-03
            2046             280     352.544E-03     360.727E-03
            2049             281     320.650E-03     326.927E-03
             882             281     320.650E-03     326.927E-03
            2046             281     320.650E-03     326.927E-03
             879             281     320.650E-03     326.927E-03
             882             282     328.020E-03     324.593E-03
            2052             282     328.020E-03     324.593E-03
            2049             282     328.020E-03     324.593E-03
             885             282     328.020E-03     324.593E-03
             888             283     353.364E-03     339.240E-03
             885             283     353.364E-03     339.240E-03
            2052             283     353.364E-03     339.240E-03
            2055             283     353.364E-03     339.240E-03
            2055             284     361.085E-03     347.001E-03
             891             284     361.085E-03     347.001E-03
            2058             284     361.085E-03     347.001E-03
             888             284     361.085E-03     347.001E-03
             891             285     372.207E-03     373.871E-03
            2058             285     372.207E-03     373.871E-03
             894             285     372.207E-03     373.871E-03
            2061             285     372.207E-03     373.871E-03
             897             286     358.308E-03     374.381E-03
            2061             286     358.308E-03     374.381E-03
            2064             286     358.308E-03     374.381E-03
             894             286     358.308E-03     374.381E-03
            2064             287     318.020E-03     330.497E-03
            2067             287     318.020E-03     330.497E-03
             900             287     318.020E-03     330.497E-03
             897             287     318.020E-03     330.497E-03
             903             288     334.297E-03     328.240E-03
            2067             288     334.297E-03     328.240E-03
             900             288     334.297E-03     328.240E-03
            2070             288     334.297E-03     328.240E-03
             903             289     369.901E-03     344.549E-03
             906             289     369.901E-03     344.549E-03
            2070             289     369.901E-03     344.549E-03
            2073             289     369.901E-03     344.549E-03
             909             290     369.716E-03     343.359E-03
            2076             290     369.716E-03     343.359E-03
             906             290     369.716E-03     343.359E-03
            2073             290     369.716E-03     343.359E-03
            2079             291     380.029E-03     370.508E-03
            2076             291     380.029E-03     370.508E-03
             909             291     380.029E-03     370.508E-03
             912             291     380.029E-03     370.508E-03
             915             292     390.038E-03     404.803E-03
            2082             292     390.038E-03     404.803E-03
            2079             292     390.038E-03     404.803E-03
             912             292     390.038E-03     404.803E-03
            2082             293     372.782E-03     402.558E-03
             918             293     372.782E-03     402.558E-03
            2085             293     372.782E-03     402.558E-03
             915             293     372.782E-03     402.558E-03
             918             294     322.908E-03     342.381E-03
            2085             294     322.908E-03     342.381E-03
            2088             294     322.908E-03     342.381E-03
             921             294     322.908E-03     342.381E-03
            2088             295     351.102E-03     341.643E-03
            2091             295     351.102E-03     341.643E-03
             921             295     351.102E-03     341.643E-03
             924             295     351.102E-03     341.643E-03
             924             296     397.199E-03     362.011E-03
            2094             296     397.199E-03     362.011E-03
            2091             296     397.199E-03     362.011E-03
             927             296     397.199E-03     362.011E-03
             927             297     389.060E-03     355.155E-03
            2097             297     389.060E-03     355.155E-03
             930             297     389.060E-03     355.155E-03
            2094             297     389.060E-03     355.155E-03
             933             298     398.716E-03     388.410E-03
            2100             298     398.716E-03     388.410E-03
            2097             298     398.716E-03     388.410E-03
             930             298     398.716E-03     388.410E-03
             933             299     411.918E-03     433.270E-03
            2103             299     411.918E-03     433.270E-03
            2100             299     411.918E-03     433.270E-03
             936             299     411.918E-03     433.270E-03
             939             300     393.066E-03     433.082E-03
            2103             300     393.066E-03     433.082E-03
            2106             300     393.066E-03     433.082E-03
             936             300     393.066E-03     433.082E-03
            2106             301     335.641E-03     359.235E-03
             942             301     335.641E-03     359.235E-03
            2109             301     335.641E-03     359.235E-03
             939             301     335.641E-03     359.235E-03
            2112             302     378.816E-03     366.259E-03
             945             302     378.816E-03     366.259E-03
             942             302     378.816E-03     366.259E-03
            2109             302     378.816E-03     366.259E-03
            2112             303     432.187E-03     392.931E-03
             945             303     432.187E-03     392.931E-03
            2115             303     432.187E-03     392.931E-03
             948             303     432.187E-03     392.931E-03
             951             304     417.798E-03     388.461E-03
            2115             304     417.798E-03     388.461E-03
            2118             304     417.798E-03     388.461E-03
             948             304     417.798E-03     388.461E-03
            2121             305     432.137E-03     447.330E-03
             954             305     432.137E-03     447.330E-03
             951             305     432.137E-03     447.330E-03
            2118             305     432.137E-03     447.330E-03
            2124             306     410.945E-03     453.506E-03
             954             306     410.945E-03     453.506E-03
             957             306     410.945E-03     453.506E-03
            2121             306     410.945E-03     453.506E-03
            2124             307     349.081E-03     372.246E-03
             957             307     349.081E-03     372.246E-03
            2127             307     349.081E-03     372.246E-03
             960             307     349.081E-03     372.246E-03
             959             308     514.998E-03     502.414E-03
            2226             308     514.998E-03     502.414E-03
             960             308     514.998E-03     502.414E-03
            2227             308     514.998E-03     502.414E-03
            2226             309     997.859E-03     960.708E-03
             958             309     997.859E-03     960.708E-03
             959             309     997.859E-03     960.708E-03
            2225             309     997.859E-03     960.708E-03
             978             310     521.895E-06     524.610E-06
             977             310     521.895E-06     524.610E-06
             976             311     595.931E-06     594.725E-06
             977             311     595.931E-06     594.725E-06
            2128             312     514.616E-03     502.078E-03
            2127             312     514.616E-03     502.078E-03
             979             312     514.616E-03     502.078E-03
             980             312     514.616E-03     502.078E-03
             980             313     997.360E-03     960.241E-03
             981             313     997.360E-03     960.241E-03
            2129             313     997.360E-03     960.241E-03
            2128             313     997.360E-03     960.241E-03
             981             314         1.18795         1.14886
             984             314         1.18795         1.14886
             984             315         1.27445         1.25590
             987             315         1.27445         1.25590
             990             316         1.40037         1.43537
             987             316         1.40037         1.43537
             990             317         1.48245         1.45370
             993             317         1.48245         1.45370
            2838             318         1.23786         1.20203
            2839             318         1.23786         1.20203
             993             318         1.23786         1.20203
             992             318         1.23786         1.20203
            2837             319     710.116E-03     695.238E-03
             992             319     710.116E-03     695.238E-03
            2838             319     710.116E-03     695.238E-03
             991             319     710.116E-03     695.238E-03
             991             320     364.989E-03     376.570E-03
             988             320     364.989E-03     376.570E-03
            2236             320     364.989E-03     376.570E-03
            2239             320     364.989E-03     376.570E-03
            2233             321     434.923E-03     444.116E-03
             985             321     434.923E-03     444.116E-03
            2236             321     434.923E-03     444.116E-03
             988             321     434.923E-03     444.116E-03
             985             322     484.257E-03     468.915E-03
            2233             322     484.257E-03     468.915E-03
             982             322     484.257E-03     468.915E-03
            2230             322     484.257E-03     468.915E-03
             982             323     397.581E-03     383.739E-03
            2230             323     397.581E-03     383.739E-03
             979             323     397.581E-03     383.739E-03
            2227             323     397.581E-03     383.739E-03
            2237             389         1.46593         1.44302
            2234             389         1.46593         1.44302
            2234             390         1.38657         1.42271
            2231             390         1.38657         1.42271
            2228             391         1.26436         1.24038
            2231             391         1.26436         1.24038
            2225             392         1.18616         1.13725
            2228             392         1.18616         1.13725
            2842             393         1.40715         1.40487
            2839             393         1.40715         1.40487
            2845             394         1.35018         1.32485
            2842             394         1.35018         1.32485
            2848             395         1.37344         1.37510
            2845             395         1.37344         1.37510
            2851             396         1.10416         1.10873
            2848             396         1.10416         1.10873
            2133             420         1.39775         1.39566
            2130             420         1.39775         1.39566
            2136             421         1.34311         1.31669
            2133             421         1.34311         1.31669
            2136             422         1.36540         1.37070
            2139             422         1.36540         1.37070
            2142             423         1.09969         1.10205
            2139             423         1.09969         1.10205
            2130             432         1.22097         1.19721
            2237             432         1.22097         1.19721
            2238             432         1.22097         1.19721
            2131             432         1.22097         1.19721
            2131             433     696.532E-03     691.607E-03
            2132             433     696.532E-03     691.607E-03
            2239             433     696.532E-03     691.607E-03
            2238             433     696.532E-03     691.607E-03
            2837             434     783.854E-03     783.913E-03
            2840             434     783.854E-03     783.913E-03
            2135             434     783.854E-03     783.913E-03
            2132             434     783.854E-03     783.913E-03
            2843             435     801.210E-03     799.273E-03
            2840             435     801.210E-03     799.273E-03
            2135             435     801.210E-03     799.273E-03
            2138             435     801.210E-03     799.273E-03
            2843             436     750.890E-03     748.072E-03
            2846             436     750.890E-03     748.072E-03
            2141             436     750.890E-03     748.072E-03
            2138             436     750.890E-03     748.072E-03
            2141             437     858.884E-03     861.276E-03
            2846             437     858.884E-03     861.276E-03
            2849             437     858.884E-03     861.276E-03
            2144             437     858.884E-03     861.276E-03
            2143             438     866.003E-03     859.855E-03
            2144             438     866.003E-03     859.855E-03
            2883             438     866.003E-03     859.855E-03
            2884             438     866.003E-03     859.855E-03
            2882             439         1.00247     975.706E-03
            2883             439         1.00247     975.706E-03
            2142             439         1.00247     975.706E-03
            2143             439         1.00247     975.706E-03
            2882             444         1.12061         1.12544
            2885             444         1.12061         1.12544
            2888             445     883.328E-03     886.321E-03
            2885             445     883.328E-03     886.321E-03
            2888             446     928.131E-03     894.387E-03
            2891             446     928.131E-03     894.387E-03
            2894             447         1.01097     991.666E-03
            2891             447         1.01097     991.666E-03
            2897             448     825.898E-03     823.366E-03
            2894             448     825.898E-03     823.366E-03
            2897             449     698.932E-03     697.909E-03
            2900             449     698.932E-03     697.909E-03
            2900             450     605.621E-03     609.787E-03
            2903             450     605.621E-03     609.787E-03
            2906             451     542.686E-03     558.976E-03
            2903             451     542.686E-03     558.976E-03
            2906             452     547.265E-03     560.243E-03
            2909             452     547.265E-03     560.243E-03
            2909             453     479.687E-03     479.940E-03
            2912             453     479.687E-03     479.940E-03
            2240             468     867.419E-03     861.383E-03
            2849             468     867.419E-03     861.383E-03
            2850             468     867.419E-03     861.383E-03
            2241             468     867.419E-03     861.383E-03
            2242             469         1.00505     978.508E-03
            2851             469         1.00505     978.508E-03
            2241             469         1.00505     978.508E-03
            2850             469         1.00505     978.508E-03
            2242             470         1.12384         1.12524
            2245             470         1.12384         1.12524
            2245             471     883.696E-03     888.589E-03
            2248             471     883.696E-03     888.589E-03
            2251             472     925.751E-03     892.915E-03
            2248             472     925.751E-03     892.915E-03
            2254             473         1.00679     986.125E-03
            2251             473         1.00679     986.125E-03
            2254             474     821.552E-03     818.667E-03
            2257             474     821.552E-03     818.667E-03
            2257             475     695.336E-03     693.206E-03
            2260             475     695.336E-03     693.206E-03
            2260             476     602.494E-03     605.931E-03
            2263             476     602.494E-03     605.931E-03
            2266             477     541.313E-03     556.540E-03
            2263             477     541.313E-03     556.540E-03
            2266             478     548.466E-03     561.081E-03
            2269             478     548.466E-03     561.081E-03
            2269             479     480.386E-03     480.987E-03
            2272             479     480.386E-03     480.987E-03
            2820             480     198.334E-03     196.860E-03
            2271             480     198.334E-03     196.860E-03
            2821             480     198.334E-03     196.860E-03
            2272             480     198.334E-03     196.860E-03
            2271             481     197.918E-03     196.448E-03
            2820             481     197.918E-03     196.448E-03
            2819             481     197.918E-03     196.448E-03
            2270             481     197.918E-03     196.448E-03
            2270             482     589.813E-03     583.549E-03
            2914             482     589.813E-03     583.549E-03
            2267             482     589.813E-03     583.549E-03
            2911             482     589.813E-03     583.549E-03
            2267             483     806.453E-03     792.320E-03
            2264             483     806.453E-03     792.320E-03
            2908             483     806.453E-03     792.320E-03
            2911             483     806.453E-03     792.320E-03
            2908             484     849.467E-03     832.503E-03
            2261             484     849.467E-03     832.503E-03
            2264             484     849.467E-03     832.503E-03
            2905             484     849.467E-03     832.503E-03
            2905             485     879.931E-03     871.035E-03
            2261             485     879.931E-03     871.035E-03
            2902             485     879.931E-03     871.035E-03
            2258             485     879.931E-03     871.035E-03
            2902             486     885.993E-03     893.169E-03
            2258             486     885.993E-03     893.169E-03
            2255             486     885.993E-03     893.169E-03
            2899             486     885.993E-03     893.169E-03
            2899             487     850.227E-03     869.537E-03
            2252             487     850.227E-03     869.537E-03
            2255             487     850.227E-03     869.537E-03
            2896             487     850.227E-03     869.537E-03
            2893             488     774.277E-03     788.908E-03
            2896             488     774.277E-03     788.908E-03
            2249             488     774.277E-03     788.908E-03
            2252             488     774.277E-03     788.908E-03
            2890             489     803.034E-03     810.440E-03
            2893             489     803.034E-03     810.440E-03
            2249             489     803.034E-03     810.440E-03
            2246             489     803.034E-03     810.440E-03
            2243             490     825.999E-03     828.837E-03
            2246             490     825.999E-03     828.837E-03
            2887             490     825.999E-03     828.837E-03
            2890             490     825.999E-03     828.837E-03
            2887             491     739.735E-03     736.234E-03
            2240             491     739.735E-03     736.234E-03
            2243             491     739.735E-03     736.234E-03
            2884             491     739.735E-03     736.234E-03
            2824             562     663.233E-06     653.090E-06
            2821             562     663.233E-06     653.090E-06
            2824             563     529.028E-06     533.042E-06
            2827             563     529.028E-06     533.042E-06
            2827             564     447.543E-06     453.292E-06
            2830             564     447.543E-06     453.292E-06
            2833             565     411.978E-06     423.598E-06
            2830             565     411.978E-06     423.598E-06
            2836             566     433.707E-06     443.659E-06
            2833             566     433.707E-06     443.659E-06
            2913             587     198.757E-03     197.283E-03
            2912             587     198.757E-03     197.283E-03
            2747             587     198.757E-03     197.283E-03
            2746             587     198.757E-03     197.283E-03
            2914             588     198.130E-03     196.660E-03
            2748             588     198.130E-03     196.660E-03
            2913             588     198.130E-03     196.660E-03
            2747             588     198.130E-03     196.660E-03
            2748             589     607.908E-06     619.295E-06
            2822             589     607.908E-06     619.295E-06
            2751             589     607.908E-06     619.295E-06
            2819             589     607.908E-06     619.295E-06
            2751             590     659.643E-06     675.062E-06
            2754             590     659.643E-06     675.062E-06
            2825             590     659.643E-06     675.062E-06
            2822             590     659.643E-06     675.062E-06
            2825             591     681.859E-06     689.654E-06
            2828             591     681.859E-06     689.654E-06
            2754             591     681.859E-06     689.654E-06
            2757             591     681.859E-06     689.654E-06
            2828             592     661.256E-06     661.060E-06
            2760             592     661.256E-06     661.060E-06
            2831             592     661.256E-06     661.060E-06
            2757             592     661.256E-06     661.060E-06
            2831             593     626.600E-06     624.353E-06
            2760             593     626.600E-06     624.353E-06
            2834             593     626.600E-06     624.353E-06
            2763             593     626.600E-06     624.353E-06
            2762             594     596.002E-06     594.845E-06
            2763             594     596.002E-06     594.845E-06
            2762             595     521.890E-06     524.599E-06
            2761             595     521.890E-06     524.599E-06
            2758             596     433.707E-06     443.659E-06
            2761             596     433.707E-06     443.659E-06
            2758             597     411.978E-06     423.598E-06
            2755             597     411.978E-06     423.598E-06
            2752             598     447.543E-06     453.292E-06
            2755             598     447.543E-06     453.292E-06
            2752             599     529.028E-06     533.042E-06
            2749             599     529.028E-06     533.042E-06
            2746             600     663.233E-06     653.090E-06
            2749             600     663.233E-06     653.090E-06
            2836             605     521.890E-06     524.599E-06
            2835             605     521.890E-06     524.599E-06
            2834             606     596.002E-06     594.845E-06
            2835             606     596.002E-06     594.845E-06
             844            1357     649.116E-06     649.162E-06
             841            1357     649.116E-06     649.162E-06
             842            1357     649.116E-06     649.162E-06
             845            1357     649.116E-06     649.162E-06
             846            1358     620.597E-06     631.484E-06
             843            1358     620.597E-06     631.484E-06
             842            1358     620.597E-06     631.484E-06
             845            1358     620.597E-06     631.484E-06
             844            1359     581.553E-06     588.156E-06
             847            1359     581.553E-06     588.156E-06
             848            1359     581.553E-06     588.156E-06
             845            1359     581.553E-06     588.156E-06
             845            1360     646.521E-06     658.883E-06
             849            1360     646.521E-06     658.883E-06
             848            1360     646.521E-06     658.883E-06
             846            1360     646.521E-06     658.883E-06
             850            1361     524.969E-06     530.337E-06
             848            1361     524.969E-06     530.337E-06
             851            1361     524.969E-06     530.337E-06
             847            1361     524.969E-06     530.337E-06
             849            1362     642.008E-06     648.404E-06
             848            1362     642.008E-06     648.404E-06
             852            1362     642.008E-06     648.404E-06
             851            1362     642.008E-06     648.404E-06
             853            1363     508.175E-06     515.469E-06
             854            1363     508.175E-06     515.469E-06
             851            1363     508.175E-06     515.469E-06
             850            1363     508.175E-06     515.469E-06
             854            1364     632.934E-06     634.243E-06
             852            1364     632.934E-06     634.243E-06
             851            1364     632.934E-06     634.243E-06
             855            1364     632.934E-06     634.243E-06
             857            1365     515.520E-06     520.439E-06
             853            1365     515.520E-06     520.439E-06
             854            1365     515.520E-06     520.439E-06
             856            1365     515.520E-06     520.439E-06
             858            1366     612.066E-06     610.801E-06
             854            1366     612.066E-06     610.801E-06
             857            1366     612.066E-06     610.801E-06
             855            1366     612.066E-06     610.801E-06
             859            1367     218.200E-03     216.756E-03
             860            1367     218.200E-03     216.756E-03
             862            1367     218.200E-03     216.756E-03
             863            1367     218.200E-03     216.756E-03
             863            1368     241.007E-03     238.113E-03
             861            1368     241.007E-03     238.113E-03
             864            1368     241.007E-03     238.113E-03
             860            1368     241.007E-03     238.113E-03
             866            1369     272.192E-03     271.955E-03
             865            1369     272.192E-03     271.955E-03
             863            1369     272.192E-03     271.955E-03
             862            1369     272.192E-03     271.955E-03
             863            1370     325.909E-03     319.880E-03
             867            1370     325.909E-03     319.880E-03
             864            1370     325.909E-03     319.880E-03
             866            1370     325.909E-03     319.880E-03
             865            1371     274.307E-03     276.031E-03
             868            1371     274.307E-03     276.031E-03
             869            1371     274.307E-03     276.031E-03
             866            1371     274.307E-03     276.031E-03
             867            1372     337.698E-03     332.517E-03
             870            1372     337.698E-03     332.517E-03
             866            1372     337.698E-03     332.517E-03
             869            1372     337.698E-03     332.517E-03
             871            1373     287.759E-03     289.228E-03
             872            1373     287.759E-03     289.228E-03
             868            1373     287.759E-03     289.228E-03
             869            1373     287.759E-03     289.228E-03
             872            1374     343.756E-03     342.644E-03
             870            1374     343.756E-03     342.644E-03
             869            1374     343.756E-03     342.644E-03
             873            1374     343.756E-03     342.644E-03
             874            1375     313.050E-03     313.047E-03
             871            1375     313.050E-03     313.047E-03
             875            1375     313.050E-03     313.047E-03
             872            1375     313.050E-03     313.047E-03
             873            1376     350.577E-03     352.497E-03
             876            1376     350.577E-03     352.497E-03
             875            1376     350.577E-03     352.497E-03
             872            1376     350.577E-03     352.497E-03
             877            1377     351.816E-03     352.665E-03
             878            1377     351.816E-03     352.665E-03
             874            1377     351.816E-03     352.665E-03
             875            1377     351.816E-03     352.665E-03
             875            1378     355.479E-03     361.019E-03
             876            1378     355.479E-03     361.019E-03
             878            1378     355.479E-03     361.019E-03
             879            1378     355.479E-03     361.019E-03
             878            1379     390.110E-03     387.775E-03
             881            1379     390.110E-03     387.775E-03
             880            1379     390.110E-03     387.775E-03
             877            1379     390.110E-03     387.775E-03
             881            1380     338.876E-03     343.853E-03
             878            1380     338.876E-03     343.853E-03
             879            1380     338.876E-03     343.853E-03
             882            1380     338.876E-03     343.853E-03
             884            1381     364.633E-03     349.647E-03
             881            1381     364.633E-03     349.647E-03
             883            1381     364.633E-03     349.647E-03
             880            1381     364.633E-03     349.647E-03
             881            1382     339.586E-03     332.421E-03
             882            1382     339.586E-03     332.421E-03
             885            1382     339.586E-03     332.421E-03
             884            1382     339.586E-03     332.421E-03
             887            1383     350.086E-03     341.575E-03
             883            1383     350.086E-03     341.575E-03
             886            1383     350.086E-03     341.575E-03
             884            1383     350.086E-03     341.575E-03
             885            1384     361.965E-03     347.155E-03
             887            1384     361.965E-03     347.155E-03
             888            1384     361.965E-03     347.155E-03
             884            1384     361.965E-03     347.155E-03
             887            1385     391.851E-03     397.733E-03
             889            1385     391.851E-03     397.733E-03
             890            1385     391.851E-03     397.733E-03
             886            1385     391.851E-03     397.733E-03
             890            1386     372.414E-03     366.082E-03
             887            1386     372.414E-03     366.082E-03
             891            1386     372.414E-03     366.082E-03
             888            1386     372.414E-03     366.082E-03
             889            1387     429.009E-03     433.033E-03
             892            1387     429.009E-03     433.033E-03
             890            1387     429.009E-03     433.033E-03
             893            1387     429.009E-03     433.033E-03
             890            1388     385.304E-03     390.155E-03
             894            1388     385.304E-03     390.155E-03
             893            1388     385.304E-03     390.155E-03
             891            1388     385.304E-03     390.155E-03
             895            1389     478.077E-03     483.913E-03
             896            1389     478.077E-03     483.913E-03
             893            1389     478.077E-03     483.913E-03
             892            1389     478.077E-03     483.913E-03
             897            1390     393.747E-03     407.250E-03
             893            1390     393.747E-03     407.250E-03
             896            1390     393.747E-03     407.250E-03
             894            1390     393.747E-03     407.250E-03
             899            1391     518.986E-03     513.630E-03
             896            1391     518.986E-03     513.630E-03
             898            1391     518.986E-03     513.630E-03
             895            1391     518.986E-03     513.630E-03
             900            1392     372.131E-03     380.979E-03
             896            1392     372.131E-03     380.979E-03
             897            1392     372.131E-03     380.979E-03
             899            1392     372.131E-03     380.979E-03
             898            1393     489.033E-03     454.681E-03
             901            1393     489.033E-03     454.681E-03
             899            1393     489.033E-03     454.681E-03
             902            1393     489.033E-03     454.681E-03
             902            1394     377.040E-03     361.226E-03
             899            1394     377.040E-03     361.226E-03
             903            1394     377.040E-03     361.226E-03
             900            1394     377.040E-03     361.226E-03
             904            1395     475.780E-03     456.606E-03
             901            1395     475.780E-03     456.606E-03
             905            1395     475.780E-03     456.606E-03
             902            1395     475.780E-03     456.606E-03
             903            1396     407.175E-03     381.309E-03
             906            1396     407.175E-03     381.309E-03
             902            1396     407.175E-03     381.309E-03
             905            1396     407.175E-03     381.309E-03
             907            1397     527.724E-03     535.711E-03
             904            1397     527.724E-03     535.711E-03
             908            1397     527.724E-03     535.711E-03
             905            1397     527.724E-03     535.711E-03
             906            1398     417.413E-03     406.024E-03
             905            1398     417.413E-03     406.024E-03
             909            1398     417.413E-03     406.024E-03
             908            1398     417.413E-03     406.024E-03
             908            1399     572.283E-03     576.882E-03
             910            1399     572.283E-03     576.882E-03
             911            1399     572.283E-03     576.882E-03
             907            1399     572.283E-03     576.882E-03
             912            1400     433.944E-03     434.829E-03
             911            1400     433.944E-03     434.829E-03
             909            1400     433.944E-03     434.829E-03
             908            1400     433.944E-03     434.829E-03
             914            1401     615.922E-03     618.055E-03
             910            1401     615.922E-03     618.055E-03
             911            1401     615.922E-03     618.055E-03
             913            1401     615.922E-03     618.055E-03
             914            1402     452.693E-03     464.518E-03
             915            1402     452.693E-03     464.518E-03
             912            1402     452.693E-03     464.518E-03
             911            1402     452.693E-03     464.518E-03
             916            1403     669.644E-03     677.845E-03
             917            1403     669.644E-03     677.845E-03
             913            1403     669.644E-03     677.845E-03
             914            1403     669.644E-03     677.845E-03
             917            1404     463.441E-03     487.008E-03
             918            1404     463.441E-03     487.008E-03
             915            1404     463.441E-03     487.008E-03
             914            1404     463.441E-03     487.008E-03
             916            1405     706.982E-03     694.851E-03
             919            1405     706.982E-03     694.851E-03
             917            1405     706.982E-03     694.851E-03
             920            1405     706.982E-03     694.851E-03
             917            1406     434.119E-03     444.287E-03
             918            1406     434.119E-03     444.287E-03
             921            1406     434.119E-03     444.287E-03
             920            1406     434.119E-03     444.287E-03
             920            1407     667.406E-03     611.251E-03
             919            1407     667.406E-03     611.251E-03
             922            1407     667.406E-03     611.251E-03
             923            1407     667.406E-03     611.251E-03
             924            1408     440.439E-03     413.309E-03
             921            1408     440.439E-03     413.309E-03
             923            1408     440.439E-03     413.309E-03
             920            1408     440.439E-03     413.309E-03
             922            1409     654.535E-03     626.206E-03
             926            1409     654.535E-03     626.206E-03
             923            1409     654.535E-03     626.206E-03
             925            1409     654.535E-03     626.206E-03
             923            1410     479.001E-03     443.832E-03
             924            1410     479.001E-03     443.832E-03
             927            1410     479.001E-03     443.832E-03
             926            1410     479.001E-03     443.832E-03
             926            1411     713.751E-03     725.770E-03
             929            1411     713.751E-03     725.770E-03
             925            1411     713.751E-03     725.770E-03
             928            1411     713.751E-03     725.770E-03
             927            1412     489.198E-03     477.304E-03
             926            1412     489.198E-03     477.304E-03
             929            1412     489.198E-03     477.304E-03
             930            1412     489.198E-03     477.304E-03
             932            1413     761.438E-03     767.992E-03
             929            1413     761.438E-03     767.992E-03
             928            1413     761.438E-03     767.992E-03
             931            1413     761.438E-03     767.992E-03
             929            1414     507.479E-03     510.795E-03
             932            1414     507.479E-03     510.795E-03
             933            1414     507.479E-03     510.795E-03
             930            1414     507.479E-03     510.795E-03
             932            1415     807.103E-03     810.984E-03
             934            1415     807.103E-03     810.984E-03
             935            1415     807.103E-03     810.984E-03
             931            1415     807.103E-03     810.984E-03
             932            1416     529.299E-03     547.011E-03
             933            1416     529.299E-03     547.011E-03
             935            1416     529.299E-03     547.011E-03
             936            1416     529.299E-03     547.011E-03
             937            1417     862.702E-03     875.241E-03
             938            1417     862.702E-03     875.241E-03
             934            1417     862.702E-03     875.241E-03
             935            1417     862.702E-03     875.241E-03
             935            1418     540.611E-03     572.971E-03
             938            1418     540.611E-03     572.971E-03
             936            1418     540.611E-03     572.971E-03
             939            1418     540.611E-03     572.971E-03
             940            1419     896.178E-03     877.345E-03
             938            1419     896.178E-03     877.345E-03
             941            1419     896.178E-03     877.345E-03
             937            1419     896.178E-03     877.345E-03
             939            1420     504.448E-03     514.212E-03
             938            1420     504.448E-03     514.212E-03
             942            1420     504.448E-03     514.212E-03
             941            1420     504.448E-03     514.212E-03
             943            1421     851.970E-03     778.045E-03
             941            1421     851.970E-03     778.045E-03
             940            1421     851.970E-03     778.045E-03
             944            1421     851.970E-03     778.045E-03
             945            1422     514.800E-03     477.893E-03
             942            1422     514.800E-03     477.893E-03
             941            1422     514.800E-03     477.893E-03
             944            1422     514.800E-03     477.893E-03
             947            1423     849.910E-03     817.481E-03
             944            1423     849.910E-03     817.481E-03
             943            1423     849.910E-03     817.481E-03
             946            1423     849.910E-03     817.481E-03
             945            1424     564.128E-03     525.798E-03
             948            1424     564.128E-03     525.798E-03
             947            1424     564.128E-03     525.798E-03
             944            1424     564.128E-03     525.798E-03
             946            1425     916.336E-03     937.089E-03
             949            1425     916.336E-03     937.089E-03
             947            1425     916.336E-03     937.089E-03
             950            1425     916.336E-03     937.089E-03
             948            1426     575.409E-03     572.362E-03
             951            1426     575.409E-03     572.362E-03
             947            1426     575.409E-03     572.362E-03
             950            1426     575.409E-03     572.362E-03
             952            1427     962.259E-03     978.006E-03
             950            1427     962.259E-03     978.006E-03
             949            1427     962.259E-03     978.006E-03
             953            1427     962.259E-03     978.006E-03
             950            1428     595.510E-03     619.976E-03
             954            1428     595.510E-03     619.976E-03
             953            1428     595.510E-03     619.976E-03
             951            1428     595.510E-03     619.976E-03
             955            1429         1.01965         1.04134
             953            1429         1.01965         1.04134
             952            1429         1.01965         1.04134
             956            1429         1.01965         1.04134
             954            1430     605.425E-03     644.518E-03
             956            1430     605.425E-03     644.518E-03
             953            1430     605.425E-03     644.518E-03
             957            1430     605.425E-03     644.518E-03
             959            1431         1.05019         1.02834
             958            1431         1.05019         1.02834
             956            1431         1.05019         1.02834
             955            1431         1.05019         1.02834
             960            1432     564.011E-03     573.089E-03
             957            1432     564.011E-03     573.089E-03
             959            1432     564.011E-03     573.089E-03
             956            1432     564.011E-03     573.089E-03
             962            1433     620.597E-06     631.484E-06
             961            1433     620.597E-06     631.484E-06
             964            1433     620.597E-06     631.484E-06
             965            1433     620.597E-06     631.484E-06
             966            1434     649.116E-06     649.162E-06
             963            1434     649.116E-06     649.162E-06
             962            1434     649.116E-06     649.162E-06
             965            1434     649.116E-06     649.162E-06
             965            1435     646.521E-06     658.883E-06
             964            1435     646.521E-06     658.883E-06
             967            1435     646.521E-06     658.883E-06
             968            1435     646.521E-06     658.883E-06
             969            1436     581.553E-06     588.156E-06
             966            1436     581.553E-06     588.156E-06
             965            1436     581.553E-06     588.156E-06
             968            1436     581.553E-06     588.156E-06
             968            1437     642.008E-06     648.404E-06
             967            1437     642.008E-06     648.404E-06
             971            1437     642.008E-06     648.404E-06
             970            1437     642.008E-06     648.404E-06
             969            1438     524.969E-06     530.337E-06
             972            1438     524.969E-06     530.337E-06
             968            1438     524.969E-06     530.337E-06
             971            1438     524.969E-06     530.337E-06
             971            1439     632.934E-06     634.243E-06
             970            1439     632.934E-06     634.243E-06
             973            1439     632.934E-06     634.243E-06
             974            1439     632.934E-06     634.243E-06
             972            1440     508.175E-06     515.469E-06
             975            1440     508.175E-06     515.469E-06
             971            1440     508.175E-06     515.469E-06
             974            1440     508.175E-06     515.469E-06
             974            1441     612.066E-06     610.801E-06
             977            1441     612.066E-06     610.801E-06
             976            1441     612.066E-06     610.801E-06
             973            1441     612.066E-06     610.801E-06
             975            1442     515.520E-06     520.439E-06
             978            1442     515.520E-06     520.439E-06
             977            1442     515.520E-06     520.439E-06
             974            1442     515.520E-06     520.439E-06
             979            1443     581.391E-03     558.091E-03
             980            1443     581.391E-03     558.091E-03
             982            1443     581.391E-03     558.091E-03
             983            1443     581.391E-03     558.091E-03
             983            1444     976.189E-03     939.538E-03
             980            1444     976.189E-03     939.538E-03
             984            1444     976.189E-03     939.538E-03
             981            1444     976.189E-03     939.538E-03
             983            1445     666.687E-03     654.888E-03
             986            1445     666.687E-03     654.888E-03
             982            1445     666.687E-03     654.888E-03
             985            1445     666.687E-03     654.888E-03
             984            1446         1.06075         1.04595
             987            1446         1.06075         1.04595
             983            1446         1.06075         1.04595
             986            1446         1.06075         1.04595
             985            1447     674.200E-03     709.587E-03
             986            1447     674.200E-03     709.587E-03
             988            1447     674.200E-03     709.587E-03
             989            1447     674.200E-03     709.587E-03
             990            1448         1.15494         1.20289
             986            1448         1.15494         1.20289
             987            1448         1.15494         1.20289
             989            1448         1.15494         1.20289
             988            1449     624.459E-03     634.988E-03
             992            1449     624.459E-03     634.988E-03
             991            1449     624.459E-03     634.988E-03
             989            1449     624.459E-03     634.988E-03
             992            1450         1.17975         1.17222
             990            1450         1.17975         1.17222
             993            1450         1.17975         1.17222
             989            1450         1.17975         1.17222
            2032            2310     241.018E-03     238.151E-03
            2029            2310     241.018E-03     238.151E-03
            2028            2310     241.018E-03     238.151E-03
            2031            2310     241.018E-03     238.151E-03
            2030            2311     218.380E-03     216.973E-03
            2033            2311     218.380E-03     216.973E-03
            2029            2311     218.380E-03     216.973E-03
            2032            2311     218.380E-03     216.973E-03
            2031            2312     325.938E-03     319.939E-03
            2034            2312     325.938E-03     319.939E-03
            2035            2312     325.938E-03     319.939E-03
            2032            2312     325.938E-03     319.939E-03
            2032            2313     272.422E-03     272.198E-03
            2033            2313     272.422E-03     272.198E-03
            2036            2313     272.422E-03     272.198E-03
            2035            2313     272.422E-03     272.198E-03
            2038            2314     337.593E-03     332.397E-03
            2035            2314     337.593E-03     332.397E-03
            2037            2314     337.593E-03     332.397E-03
            2034            2314     337.593E-03     332.397E-03
            2038            2315     274.029E-03     275.717E-03
            2036            2315     274.029E-03     275.717E-03
            2035            2315     274.029E-03     275.717E-03
            2039            2315     274.029E-03     275.717E-03
            2041            2316     343.484E-03     342.346E-03
            2040            2316     343.484E-03     342.346E-03
            2037            2316     343.484E-03     342.346E-03
            2038            2316     343.484E-03     342.346E-03
            2039            2317     287.091E-03     288.546E-03
            2038            2317     287.091E-03     288.546E-03
            2041            2317     287.091E-03     288.546E-03
            2042            2317     287.091E-03     288.546E-03
            2043            2318     350.133E-03     352.036E-03
            2041            2318     350.133E-03     352.036E-03
            2040            2318     350.133E-03     352.036E-03
            2044            2318     350.133E-03     352.036E-03
            2041            2319     312.123E-03     312.121E-03
            2042            2319     312.123E-03     312.121E-03
            2044            2319     312.123E-03     312.121E-03
            2045            2319     312.123E-03     312.121E-03
            2047            2320     354.909E-03     360.434E-03
            2046            2320     354.909E-03     360.434E-03
            2044            2320     354.909E-03     360.434E-03
            2043            2320     354.909E-03     360.434E-03
            2048            2321     350.673E-03     351.522E-03
            2045            2321     350.673E-03     351.522E-03
            2044            2321     350.673E-03     351.522E-03
            2047            2321     350.673E-03     351.522E-03
            2047            2322     338.234E-03     343.232E-03
            2050            2322     338.234E-03     343.232E-03
            2049            2322     338.234E-03     343.232E-03
            2046            2322     338.234E-03     343.232E-03
            2048            2323     388.811E-03     386.515E-03
            2050            2323     388.811E-03     386.515E-03
            2051            2323     388.811E-03     386.515E-03
            2047            2323     388.811E-03     386.515E-03
            2050            2324     339.071E-03     331.979E-03
            2053            2324     339.071E-03     331.979E-03
            2049            2324     339.071E-03     331.979E-03
            2052            2324     339.071E-03     331.979E-03
            2050            2325     363.582E-03     348.728E-03
            2054            2325     363.582E-03     348.728E-03
            2051            2325     363.582E-03     348.728E-03
            2053            2325     363.582E-03     348.728E-03
            2052            2326     361.516E-03     346.741E-03
            2053            2326     361.516E-03     346.741E-03
            2056            2326     361.516E-03     346.741E-03
            2055            2326     361.516E-03     346.741E-03
            2054            2327     349.185E-03     340.743E-03
            2053            2327     349.185E-03     340.743E-03
            2056            2327     349.185E-03     340.743E-03
            2057            2327     349.185E-03     340.743E-03
            2058            2328     371.804E-03     365.431E-03
            2059            2328     371.804E-03     365.431E-03
            2055            2328     371.804E-03     365.431E-03
            2056            2328     371.804E-03     365.431E-03
            2057            2329     390.696E-03     396.546E-03
            2060            2329     390.696E-03     396.546E-03
            2059            2329     390.696E-03     396.546E-03
            2056            2329     390.696E-03     396.546E-03
            2061            2330     384.543E-03     389.337E-03
            2062            2330     384.543E-03     389.337E-03
            2058            2330     384.543E-03     389.337E-03
            2059            2330     384.543E-03     389.337E-03
            2063            2331     427.699E-03     431.698E-03
            2059            2331     427.699E-03     431.698E-03
            2062            2331     427.699E-03     431.698E-03
            2060            2331     427.699E-03     431.698E-03
            2062            2332     392.889E-03     406.361E-03
            2061            2332     392.889E-03     406.361E-03
            2065            2332     392.889E-03     406.361E-03
            2064            2332     392.889E-03     406.361E-03
            2062            2333     476.647E-03     482.461E-03
            2066            2333     476.647E-03     482.461E-03
            2063            2333     476.647E-03     482.461E-03
            2065            2333     476.647E-03     482.461E-03
            2065            2334     371.226E-03     380.114E-03
            2068            2334     371.226E-03     380.114E-03
            2064            2334     371.226E-03     380.114E-03
            2067            2334     371.226E-03     380.114E-03
            2069            2335     517.469E-03     512.154E-03
            2065            2335     517.469E-03     512.154E-03
            2066            2335     517.469E-03     512.154E-03
            2068            2335     517.469E-03     512.154E-03
            2068            2336     376.267E-03     360.549E-03
            2071            2336     376.267E-03     360.549E-03
            2067            2336     376.267E-03     360.549E-03
            2070            2336     376.267E-03     360.549E-03
            2072            2337     487.675E-03     453.455E-03
            2068            2337     487.675E-03     453.455E-03
            2069            2337     487.675E-03     453.455E-03
            2071            2337     487.675E-03     453.455E-03
            2074            2338     406.462E-03     380.628E-03
            2073            2338     406.462E-03     380.628E-03
            2070            2338     406.462E-03     380.628E-03
            2071            2338     406.462E-03     380.628E-03
            2071            2339     474.515E-03     455.400E-03
            2074            2339     474.515E-03     455.400E-03
            2075            2339     474.515E-03     455.400E-03
            2072            2339     474.515E-03     455.400E-03
            2074            2340     416.544E-03     405.090E-03
            2076            2340     416.544E-03     405.090E-03
            2077            2340     416.544E-03     405.090E-03
            2073            2340     416.544E-03     405.090E-03
            2078            2341     526.319E-03     534.271E-03
            2075            2341     526.319E-03     534.271E-03
            2077            2341     526.319E-03     534.271E-03
            2074            2341     526.319E-03     534.271E-03
            2080            2342     432.976E-03     433.797E-03
            2076            2342     432.976E-03     433.797E-03
            2077            2342     432.976E-03     433.797E-03
            2079            2342     432.976E-03     433.797E-03
            2077            2343     570.792E-03     575.372E-03
            2078            2343     570.792E-03     575.372E-03
            2081            2343     570.792E-03     575.372E-03
            2080            2343     570.792E-03     575.372E-03
            2082            2344     451.635E-03     463.424E-03
            2079            2344     451.635E-03     463.424E-03
            2080            2344     451.635E-03     463.424E-03
            2083            2344     451.635E-03     463.424E-03
            2084            2345     614.372E-03     616.493E-03
            2081            2345     614.372E-03     616.493E-03
            2083            2345     614.372E-03     616.493E-03
            2080            2345     614.372E-03     616.493E-03
            2086            2346     462.337E-03     485.902E-03
            2085            2346     462.337E-03     485.902E-03
            2082            2346     462.337E-03     485.902E-03
            2083            2346     462.337E-03     485.902E-03
            2087            2347     668.044E-03     676.235E-03
            2086            2347     668.044E-03     676.235E-03
            2083            2347     668.044E-03     676.235E-03
            2084            2347     668.044E-03     676.235E-03
            2089            2348     432.988E-03     443.234E-03
            2085            2348     432.988E-03     443.234E-03
            2086            2348     432.988E-03     443.234E-03
            2088            2348     432.988E-03     443.234E-03
            2086            2349     705.341E-03     693.268E-03
            2087            2349     705.341E-03     693.268E-03
            2090            2349     705.341E-03     693.268E-03
            2089            2349     705.341E-03     693.268E-03
            2092            2350     439.455E-03     412.437E-03
            2089            2350     439.455E-03     412.437E-03
            2091            2350     439.455E-03     412.437E-03
            2088            2350     439.455E-03     412.437E-03
            2092            2351     665.890E-03     609.863E-03
            2093            2351     665.890E-03     609.863E-03
            2090            2351     665.890E-03     609.863E-03
            2089            2351     665.890E-03     609.863E-03
            2092            2352     478.082E-03     442.933E-03
            2094            2352     478.082E-03     442.933E-03
            2095            2352     478.082E-03     442.933E-03
            2091            2352     478.082E-03     442.933E-03
            2095            2353     653.085E-03     624.804E-03
            2096            2353     653.085E-03     624.804E-03
            2093            2353     653.085E-03     624.804E-03
            2092            2353     653.085E-03     624.804E-03
            2094            2354     488.117E-03     476.142E-03
            2095            2354     488.117E-03     476.142E-03
            2098            2354     488.117E-03     476.142E-03
            2097            2354     488.117E-03     476.142E-03
            2095            2355     712.202E-03     724.190E-03
            2098            2355     712.202E-03     724.190E-03
            2099            2355     712.202E-03     724.190E-03
            2096            2355     712.202E-03     724.190E-03
            2098            2356     506.317E-03     509.558E-03
            2101            2356     506.317E-03     509.558E-03
            2100            2356     506.317E-03     509.558E-03
            2097            2356     506.317E-03     509.558E-03
            2099            2357     759.838E-03     766.375E-03
            2101            2357     759.838E-03     766.375E-03
            2098            2357     759.838E-03     766.375E-03
            2102            2357     759.838E-03     766.375E-03
            2100            2358     528.074E-03     545.748E-03
            2104            2358     528.074E-03     545.748E-03
            2103            2358     528.074E-03     545.748E-03
            2101            2358     528.074E-03     545.748E-03
            2102            2359     805.468E-03     809.337E-03
            2101            2359     805.468E-03     809.337E-03
            2105            2359     805.468E-03     809.337E-03
            2104            2359     805.468E-03     809.337E-03
            2107            2360     539.354E-03     571.725E-03
            2103            2360     539.354E-03     571.725E-03
            2104            2360     539.354E-03     571.725E-03
            2106            2360     539.354E-03     571.725E-03
            2107            2361     861.035E-03     873.563E-03
            2108            2361     861.035E-03     873.563E-03
            2105            2361     861.035E-03     873.563E-03
            2104            2361     861.035E-03     873.563E-03
            2109            2362     503.170E-03     513.029E-03
            2106            2362     503.170E-03     513.029E-03
            2107            2362     503.170E-03     513.029E-03
            2110            2362     503.170E-03     513.029E-03
            2111            2363     894.488E-03     875.711E-03
            2107            2363     894.488E-03     875.711E-03
            2110            2363     894.488E-03     875.711E-03
            2108            2363     894.488E-03     875.711E-03
            2109            2364     513.678E-03     476.880E-03
            2113            2364     513.678E-03     476.880E-03
            2110            2364     513.678E-03     476.880E-03
            2112            2364     513.678E-03     476.880E-03
            2111            2365     850.388E-03     776.578E-03
            2113            2365     850.388E-03     776.578E-03
            2110            2365     850.388E-03     776.578E-03
            2114            2365     850.388E-03     776.578E-03
            2112            2366     563.075E-03     524.750E-03
            2116            2366     563.075E-03     524.750E-03
            2113            2366     563.075E-03     524.750E-03
            2115            2366     563.075E-03     524.750E-03
            2117            2367     848.377E-03     815.985E-03
            2116            2367     848.377E-03     815.985E-03
            2114            2367     848.377E-03     815.985E-03
            2113            2367     848.377E-03     815.985E-03
            2115            2368     574.184E-03     571.054E-03
            2116            2368     574.184E-03     571.054E-03
            2119            2368     574.184E-03     571.054E-03
            2118            2368     574.184E-03     571.054E-03
            2117            2369     914.718E-03     935.443E-03
            2116            2369     914.718E-03     935.443E-03
            2119            2369     914.718E-03     935.443E-03
            2120            2369     914.718E-03     935.443E-03
            2118            2370     594.193E-03     618.581E-03
            2119            2370     594.193E-03     618.581E-03
            2121            2370     594.193E-03     618.581E-03
            2122            2370     594.193E-03     618.581E-03
            2119            2371     960.605E-03     976.333E-03
            2123            2371     960.605E-03     976.333E-03
            2122            2371     960.605E-03     976.333E-03
            2120            2371     960.605E-03     976.333E-03
            2124            2372     604.078E-03     643.171E-03
            2122            2372     604.078E-03     643.171E-03
            2121            2372     604.078E-03     643.171E-03
            2125            2372     604.078E-03     643.171E-03
            2125            2373         1.01796         1.03963
            2122            2373         1.01796         1.03963
            2123            2373         1.01796         1.03963
            2126            2373         1.01796         1.03963
            2125            2374     562.641E-03     571.808E-03
            2124            2374     562.641E-03     571.808E-03
            2127            2374     562.641E-03     571.808E-03
            2128            2374     562.641E-03     571.808E-03
            2128            2375         1.04848         1.02667
            2126            2375         1.04848         1.02667
            2125            2375         1.04848         1.02667
            2129            2375         1.04848         1.02667
            2134            2376         1.24223         1.24098
            2133            2376         1.24223         1.24098
            2130            2376         1.24223         1.24098
            2131            2376         1.24223         1.24098
            2132            2377     934.339E-03     934.366E-03
            2134            2377     934.339E-03     934.366E-03
            2131            2377     934.339E-03     934.366E-03
            2135            2377     934.339E-03     934.366E-03
            2137            2378         1.19990         1.19068
            2136            2378         1.19990         1.19068
            2133            2378         1.19990         1.19068
            2134            2378         1.19990         1.19068
            2134            2379     928.378E-03     931.389E-03
            2135            2379     928.378E-03     931.389E-03
            2138            2379     928.378E-03     931.389E-03
            2137            2379     928.378E-03     931.389E-03
            2136            2380         1.18910         1.20520
            2139            2380         1.18910         1.20520
            2140            2380         1.18910         1.20520
            2137            2380         1.18910         1.20520
            2137            2381     881.233E-03     893.580E-03
            2140            2381     881.233E-03     893.580E-03
            2141            2381     881.233E-03     893.580E-03
            2138            2381     881.233E-03     893.580E-03
            2140            2382         1.06617         1.06396
            2143            2382         1.06617         1.06396
            2142            2382         1.06617         1.06396
            2139            2382         1.06617         1.06396
            2143            2383     945.460E-03     943.102E-03
            2144            2383     945.460E-03     943.102E-03
            2141            2383     945.460E-03     943.102E-03
            2140            2383     945.460E-03     943.102E-03
            2225            2440     974.398E-03     929.235E-03
            2226            2440     974.398E-03     929.235E-03
            2228            2440     974.398E-03     929.235E-03
            2229            2440     974.398E-03     929.235E-03
            2230            2441     579.723E-03     551.365E-03
            2227            2441     579.723E-03     551.365E-03
            2226            2441     579.723E-03     551.365E-03
            2229            2441     579.723E-03     551.365E-03
            2232            2442         1.05247         1.02996
            2229            2442         1.05247         1.02996
            2231            2442         1.05247         1.02996
            2228            2442         1.05247         1.02996
            2232            2443     661.383E-03     641.797E-03
            2233            2443     661.383E-03     641.797E-03
            2230            2443     661.383E-03     641.797E-03
            2229            2443     661.383E-03     641.797E-03
            2234            2444         1.14145         1.19006
            2231            2444         1.14145         1.19006
            2235            2444         1.14145         1.19006
            2232            2444         1.14145         1.19006
            2233            2445     663.637E-03     698.443E-03
            2235            2445     663.637E-03     698.443E-03
            2236            2445     663.637E-03     698.443E-03
            2232            2445     663.637E-03     698.443E-03
            2234            2446         1.16244         1.16299
            2237            2446         1.16244         1.16299
            2238            2446         1.16244         1.16299
            2235            2446         1.16244         1.16299
            2235            2447     608.531E-03     628.429E-03
            2238            2447     608.531E-03     628.429E-03
            2239            2447     608.531E-03     628.429E-03
            2236            2447     608.531E-03     628.429E-03
            2244            2448     830.389E-03     836.697E-03
            2240            2448     830.389E-03     836.697E-03
            2243            2448     830.389E-03     836.697E-03
            2241            2448     830.389E-03     836.697E-03
            2242            2449         1.02223         1.03123
            2241            2449         1.02223         1.03123
            2244            2449         1.02223         1.03123
            2245            2449         1.02223         1.03123
            2243            2450     884.685E-03     883.049E-03
            2247            2450     884.685E-03     883.049E-03
            2246            2450     884.685E-03     883.049E-03
            2244            2450     884.685E-03     883.049E-03
            2247            2451     913.519E-03     912.784E-03
            2248            2451     913.519E-03     912.784E-03
            2245            2451     913.519E-03     912.784E-03
            2244            2451     913.519E-03     912.784E-03
            2250            2452     833.066E-03     830.150E-03
            2247            2452     833.066E-03     830.150E-03
            2249            2452     833.066E-03     830.150E-03
            2246            2452     833.066E-03     830.150E-03
            2250            2453     894.550E-03     871.449E-03
            2247            2453     894.550E-03     871.449E-03
            2251            2453     894.550E-03     871.449E-03
            2248            2453     894.550E-03     871.449E-03
            2252            2454     814.499E-03     826.102E-03
            2253            2454     814.499E-03     826.102E-03
            2249            2454     814.499E-03     826.102E-03
            2250            2454     814.499E-03     826.102E-03
            2250            2455     930.948E-03     924.993E-03
            2251            2455     930.948E-03     924.993E-03
            2254            2455     930.948E-03     924.993E-03
            2253            2455     930.948E-03     924.993E-03
            2255            2456     855.024E-03     868.022E-03
            2253            2456     855.024E-03     868.022E-03
            2256            2456     855.024E-03     868.022E-03
            2252            2456     855.024E-03     868.022E-03
            2253            2457     840.918E-03     842.809E-03
            2254            2457     840.918E-03     842.809E-03
            2256            2457     840.918E-03     842.809E-03
            2257            2457     840.918E-03     842.809E-03
            2258            2458     845.173E-03     849.404E-03
            2255            2458     845.173E-03     849.404E-03
            2259            2458     845.173E-03     849.404E-03
            2256            2458     845.173E-03     849.404E-03
            2259            2459     749.976E-03     749.701E-03
            2257            2459     749.976E-03     749.701E-03
            2260            2459     749.976E-03     749.701E-03
            2256            2459     749.976E-03     749.701E-03
            2261            2460     830.121E-03     827.007E-03
            2258            2460     830.121E-03     827.007E-03
            2259            2460     830.121E-03     827.007E-03
            2262            2460     830.121E-03     827.007E-03
            2263            2461     691.461E-03     694.623E-03
            2259            2461     691.461E-03     694.623E-03
            2260            2461     691.461E-03     694.623E-03
            2262            2461     691.461E-03     694.623E-03
            2264            2462     816.016E-03     803.786E-03
            2262            2462     816.016E-03     803.786E-03
            2261            2462     816.016E-03     803.786E-03
            2265            2462     816.016E-03     803.786E-03
            2263            2463     662.054E-03     665.798E-03
            2265            2463     662.054E-03     665.798E-03
            2262            2463     662.054E-03     665.798E-03
            2266            2463     662.054E-03     665.798E-03
            2264            2464     787.916E-03     774.239E-03
            2268            2464     787.916E-03     774.239E-03
            2265            2464     787.916E-03     774.239E-03
            2267            2464     787.916E-03     774.239E-03
            2265            2465     658.975E-03     658.607E-03
            2266            2465     658.975E-03     658.607E-03
            2268            2465     658.975E-03     658.607E-03
            2269            2465     658.975E-03     658.607E-03
            2271            2466     582.270E-03     575.719E-03
            2267            2466     582.270E-03     575.719E-03
            2270            2466     582.270E-03     575.719E-03
            2268            2466     582.270E-03     575.719E-03
            2269            2467     527.573E-03     524.468E-03
            2268            2467     527.573E-03     524.468E-03
            2271            2467     527.573E-03     524.468E-03
            2272            2467     527.573E-03     524.468E-03
            2750            2844     647.833E-06     647.903E-06
            2747            2844     647.833E-06     647.903E-06
            2749            2844     647.833E-06     647.903E-06
            2746            2844     647.833E-06     647.903E-06
            2751            2845     620.170E-06     631.006E-06
            2748            2845     620.170E-06     631.006E-06
            2747            2845     620.170E-06     631.006E-06
            2750            2845     620.170E-06     631.006E-06
            2749            2846     580.822E-06     587.437E-06
            2750            2846     580.822E-06     587.437E-06
            2752            2846     580.822E-06     587.437E-06
            2753            2846     580.822E-06     587.437E-06
            2750            2847     646.129E-06     658.447E-06
            2753            2847     646.129E-06     658.447E-06
            2754            2847     646.129E-06     658.447E-06
            2751            2847     646.129E-06     658.447E-06
            2753            2848     524.704E-06     530.076E-06
            2755            2848     524.704E-06     530.076E-06
            2752            2848     524.704E-06     530.076E-06
            2756            2848     524.704E-06     530.076E-06
            2754            2849     641.862E-06     648.258E-06
            2757            2849     641.862E-06     648.258E-06
            2753            2849     641.862E-06     648.258E-06
            2756            2849     641.862E-06     648.258E-06
            2756            2850     508.224E-06     515.487E-06
            2759            2850     508.224E-06     515.487E-06
            2758            2850     508.224E-06     515.487E-06
            2755            2850     508.224E-06     515.487E-06
            2757            2851     632.863E-06     634.218E-06
            2759            2851     632.863E-06     634.218E-06
            2756            2851     632.863E-06     634.218E-06
            2760            2851     632.863E-06     634.218E-06
            2759            2852     515.614E-06     520.517E-06
            2762            2852     515.614E-06     520.517E-06
            2761            2852     515.614E-06     520.517E-06
            2758            2852     515.614E-06     520.517E-06
            2759            2853     612.061E-06     610.864E-06
            2760            2853     612.061E-06     610.864E-06
            2762            2853     612.061E-06     610.864E-06
            2763            2853     612.061E-06     610.864E-06
            2823            2894     620.170E-06     631.006E-06
            2820            2894     620.170E-06     631.006E-06
            2819            2894     620.170E-06     631.006E-06
            2822            2894     620.170E-06     631.006E-06
            2823            2895     647.833E-06     647.903E-06
            2821            2895     647.833E-06     647.903E-06
            2820            2895     647.833E-06     647.903E-06
            2824            2895     647.833E-06     647.903E-06
            2826            2896     646.129E-06     658.447E-06
            2823            2896     646.129E-06     658.447E-06
            2825            2896     646.129E-06     658.447E-06
            2822            2896     646.129E-06     658.447E-06
            2826            2897     580.822E-06     587.437E-06
            2824            2897     580.822E-06     587.437E-06
            2823            2897     580.822E-06     587.437E-06
            2827            2897     580.822E-06     587.437E-06
            2825            2898     641.862E-06     648.258E-06
            2828            2898     641.862E-06     648.258E-06
            2826            2898     641.862E-06     648.258E-06
            2829            2898     641.862E-06     648.258E-06
            2826            2899     524.704E-06     530.076E-06
            2829            2899     524.704E-06     530.076E-06
            2830            2899     524.704E-06     530.076E-06
            2827            2899     524.704E-06     530.076E-06
            2832            2900     632.863E-06     634.218E-06
            2831            2900     632.863E-06     634.218E-06
            2829            2900     632.863E-06     634.218E-06
            2828            2900     632.863E-06     634.218E-06
            2832            2901     508.224E-06     515.487E-06
            2833            2901     508.224E-06     515.487E-06
            2829            2901     508.224E-06     515.487E-06
            2830            2901     508.224E-06     515.487E-06
            2834            2902     612.061E-06     610.864E-06
            2835            2902     612.061E-06     610.864E-06
            2832            2902     612.061E-06     610.864E-06
            2831            2902     612.061E-06     610.864E-06
            2836            2903     515.614E-06     520.517E-06
            2835            2903     515.614E-06     520.517E-06
            2832            2903     515.614E-06     520.517E-06
            2833            2903     515.614E-06     520.517E-06
            2837            2904     939.802E-03     939.240E-03
            2840            2904     939.802E-03     939.240E-03
            2838            2904     939.802E-03     939.240E-03
            2841            2904     939.802E-03     939.240E-03
            2842            2905         1.25050         1.24898
            2841            2905         1.25050         1.24898
            2838            2905         1.25050         1.24898
            2839            2905         1.25050         1.24898
            2844            2906     932.158E-03     935.527E-03
            2840            2906     932.158E-03     935.527E-03
            2843            2906     932.158E-03     935.527E-03
            2841            2906     932.158E-03     935.527E-03
            2844            2907         1.20607         1.19773
            2845            2907         1.20607         1.19773
            2841            2907         1.20607         1.19773
            2842            2907         1.20607         1.19773
            2844            2908     885.293E-03     895.978E-03
            2846            2908     885.293E-03     895.978E-03
            2843            2908     885.293E-03     895.978E-03
            2847            2908     885.293E-03     895.978E-03
            2844            2909         1.19595         1.20919
            2845            2909         1.19595         1.20919
            2847            2909         1.19595         1.20919
            2848            2909         1.19595         1.20919
            2846            2910     947.325E-03     946.527E-03
            2847            2910     947.325E-03     946.527E-03
            2849            2910     947.325E-03     946.527E-03
            2850            2910     947.325E-03     946.527E-03
            2847            2911         1.06966         1.06979
            2848            2911         1.06966         1.06979
            2851            2911         1.06966         1.06979
            2850            2911         1.06966         1.06979
            2882            2932         1.01974         1.03122
            2886            2932         1.01974         1.03122
            2885            2932         1.01974         1.03122
            2883            2932         1.01974         1.03122
            2883            2933     829.098E-03     836.655E-03
            2884            2933     829.098E-03     836.655E-03
            2886            2933     829.098E-03     836.655E-03
            2887            2933     829.098E-03     836.655E-03
            2885            2934     913.475E-03     910.745E-03
            2888            2934     913.475E-03     910.745E-03
            2889            2934     913.475E-03     910.745E-03
            2886            2934     913.475E-03     910.745E-03
            2887            2935     884.797E-03     881.862E-03
            2886            2935     884.797E-03     881.862E-03
            2889            2935     884.797E-03     881.862E-03
            2890            2935     884.797E-03     881.862E-03
            2889            2936     896.692E-03     872.442E-03
            2888            2936     896.692E-03     872.442E-03
            2892            2936     896.692E-03     872.442E-03
            2891            2936     896.692E-03     872.442E-03
            2892            2937     834.269E-03     830.530E-03
            2893            2937     834.269E-03     830.530E-03
            2890            2937     834.269E-03     830.530E-03
            2889            2937     834.269E-03     830.530E-03
            2891            2938     934.478E-03     929.444E-03
            2892            2938     934.478E-03     929.444E-03
            2894            2938     934.478E-03     929.444E-03
            2895            2938     934.478E-03     929.444E-03
            2893            2939     816.322E-03     828.346E-03
            2895            2939     816.322E-03     828.346E-03
            2896            2939     816.322E-03     828.346E-03
            2892            2939     816.322E-03     828.346E-03
            2894            2940     844.409E-03     846.799E-03
            2897            2940     844.409E-03     846.799E-03
            2895            2940     844.409E-03     846.799E-03
            2898            2940     844.409E-03     846.799E-03
            2896            2941     856.806E-03     870.106E-03
            2898            2941     856.806E-03     870.106E-03
            2895            2941     856.806E-03     870.106E-03
            2899            2941     856.806E-03     870.106E-03
            2901            2942     752.691E-03     753.497E-03
            2900            2942     752.691E-03     753.497E-03
            2898            2942     752.691E-03     753.497E-03
            2897            2942     752.691E-03     753.497E-03
            2899            2943     846.353E-03     851.406E-03
            2901            2943     846.353E-03     851.406E-03
            2898            2943     846.353E-03     851.406E-03
            2902            2943     846.353E-03     851.406E-03
            2903            2944     693.543E-03     697.693E-03
            2901            2944     693.543E-03     697.693E-03
            2904            2944     693.543E-03     697.693E-03
            2900            2944     693.543E-03     697.693E-03
            2904            2945     830.756E-03     828.484E-03
            2902            2945     830.756E-03     828.484E-03
            2905            2945     830.756E-03     828.484E-03
            2901            2945     830.756E-03     828.484E-03
            2903            2946     663.044E-03     667.413E-03
            2906            2946     663.044E-03     667.413E-03
            2904            2946     663.044E-03     667.413E-03
            2907            2946     663.044E-03     667.413E-03
            2907            2947     816.550E-03     804.169E-03
            2905            2947     816.550E-03     804.169E-03
            2908            2947     816.550E-03     804.169E-03
            2904            2947     816.550E-03     804.169E-03
            2907            2948     658.613E-03     657.712E-03
            2910            2948     658.613E-03     657.712E-03
            2909            2948     658.613E-03     657.712E-03
            2906            2948     658.613E-03     657.712E-03
            2908            2949     788.260E-03     773.738E-03
            2910            2949     788.260E-03     773.738E-03
            2907            2949     788.260E-03     773.738E-03
            2911            2949     788.260E-03     773.738E-03
            2910            2950     527.454E-03     523.742E-03
            2909            2950     527.454E-03     523.742E-03
            2912            2950     527.454E-03     523.742E-03
            2913            2950     527.454E-03     523.742E-03
            2911            2951     582.534E-03     575.576E-03
            2914            2951     582.534E-03     575.576E-03
            2910            2951     582.534E-03     575.576E-03
            2913            2951     582.534E-03     575.576E-03


  Minimum                            411.978E-06     423.598E-06
      At Element                            2833            2833
            Node                             565             565

  Maximum                                1.55660         1.51039
      At Element                            2839            2839
            Node                              16              16

           Total                         857.375         852.166


Field Output reported at element nodes for region: CRJ700-1.Region_3
   Computation algorithm: EXTRAPOLATE_COMPUTE_AVERAGE
   Averaged at nodes
   Averaging regions: ODB_REGIONS

   Element Label      Node Label         S.Mises         S.Mises
                                          @Loc 1          @Loc 2
-----------------------------------------------------------------
               1               1     3.24612E-03     3.66632E-03
            2288               1     3.24612E-03     3.66632E-03
            2273               2     10.0095E-03     10.3464E-03
              16               2     10.0095E-03     10.3464E-03
            1009               3         1.37238         1.42420
             544               3         1.37238         1.42420
             529               4     43.8629E-03     66.2489E-03
             994               4     43.8629E-03     66.2489E-03
            2368               7     232.183E-06     286.868E-06
            2353               9     71.3107E-06     153.926E-06
            1768              16         1.56693         1.67967
            1073              16         1.56693         1.67967
            1058              18     101.062E-03     114.252E-03
            1753              18     101.062E-03     114.252E-03
            1832              21         1.04642         1.09577
            3026              21         1.04642         1.09577
            3011              22     169.956E-03     171.905E-03
            1817              22     169.956E-03     171.905E-03
            2560              28     20.8112E-03     21.3934E-03
            3186              28     20.8112E-03     21.3934E-03
            2545              30     2.60403E-03     3.62732E-03
            3171              30     2.60403E-03     3.62732E-03
            2640              31     71.0490E-06     153.934E-06
            2625              32     231.758E-06     286.357E-06
               2              36     3.30981E-03     3.72995E-03
            2288              36     3.30981E-03     3.72995E-03
            2287              36     3.30981E-03     3.72995E-03
               1              36     3.30981E-03     3.72995E-03
               3              37     3.48240E-03     3.90368E-03
            2287              37     3.48240E-03     3.90368E-03
               2              37     3.48240E-03     3.90368E-03
            2286              37     3.48240E-03     3.90368E-03
            2285              38     3.73959E-03     4.16155E-03
               4              38     3.73959E-03     4.16155E-03
               3              38     3.73959E-03     4.16155E-03
            2286              38     3.73959E-03     4.16155E-03
            2285              39     4.06964E-03     4.48658E-03
               4              39     4.06964E-03     4.48658E-03
            2284              39     4.06964E-03     4.48658E-03
               5              39     4.06964E-03     4.48658E-03
            2284              40     4.45651E-03     4.86440E-03
            2283              40     4.45651E-03     4.86440E-03
               6              40     4.45651E-03     4.86440E-03
               5              40     4.45651E-03     4.86440E-03
            2282              41     4.88659E-03     5.28388E-03
               7              41     4.88659E-03     5.28388E-03
               6              41     4.88659E-03     5.28388E-03
            2283              41     4.88659E-03     5.28388E-03
            2281              42     5.34972E-03     5.73542E-03
            2282              42     5.34972E-03     5.73542E-03
               8              42     5.34972E-03     5.73542E-03
               7              42     5.34972E-03     5.73542E-03
            2281              43     5.83797E-03     6.21239E-03
               8              43     5.83797E-03     6.21239E-03
               9              43     5.83797E-03     6.21239E-03
            2280              43     5.83797E-03     6.21239E-03
              10              44     6.34509E-03     6.70885E-03
               9              44     6.34509E-03     6.70885E-03
            2280              44     6.34509E-03     6.70885E-03
            2279              44     6.34509E-03     6.70885E-03
            2278              45     6.86731E-03     7.22091E-03
            2279              45     6.86731E-03     7.22091E-03
              11              45     6.86731E-03     7.22091E-03
              10              45     6.86731E-03     7.22091E-03
              11              46     7.40006E-03     7.74486E-03
            2277              46     7.40006E-03     7.74486E-03
              12              46     7.40006E-03     7.74486E-03
            2278              46     7.40006E-03     7.74486E-03
              12              47     7.94263E-03     8.27905E-03
              13              47     7.94263E-03     8.27905E-03
            2277              47     7.94263E-03     8.27905E-03
            2276              47     7.94263E-03     8.27905E-03
            2276              48     8.49437E-03     8.82414E-03
              14              48     8.49437E-03     8.82414E-03
            2275              48     8.49437E-03     8.82414E-03
              13              48     8.49437E-03     8.82414E-03
              15              49     9.06169E-03     9.38721E-03
            2275              49     9.06169E-03     9.38721E-03
            2274              49     9.06169E-03     9.38721E-03
              14              49     9.06169E-03     9.38721E-03
            2273              50     9.68090E-03     10.0109E-03
              16              50     9.68090E-03     10.0109E-03
              15              50     9.68090E-03     10.0109E-03
            2274              50     9.68090E-03     10.0109E-03
              32              51     45.8701E-03     56.0899E-03
              16              51     45.8701E-03     56.0899E-03
              48              52     92.3945E-03     101.939E-03
              32              52     92.3945E-03     101.939E-03
              48              53     139.422E-03     136.081E-03
              64              53     139.422E-03     136.081E-03
              80              54     192.485E-03     187.727E-03
              64              54     192.485E-03     187.727E-03
              80              55     240.115E-03     246.841E-03
              96              55     240.115E-03     246.841E-03
              96              56     299.924E-03     296.647E-03
             112              56     299.924E-03     296.647E-03
             128              57     350.572E-03     365.999E-03
             112              57     350.572E-03     365.999E-03
             128              58     333.901E-03     345.455E-03
             144              58     333.901E-03     345.455E-03
             144              59     336.545E-03     325.695E-03
             160              59     336.545E-03     325.695E-03
             160              60     410.894E-03     412.684E-03
             176              60     410.894E-03     412.684E-03
             192              61     473.581E-03     485.089E-03
             176              61     473.581E-03     485.089E-03
             208              62     537.041E-03     537.558E-03
             192              62     537.041E-03     537.558E-03
             224              63     588.986E-03     604.757E-03
             208              63     588.986E-03     604.757E-03
             224              64     571.448E-03     587.841E-03
             240              64     571.448E-03     587.841E-03
             256              65     585.172E-03     570.392E-03
             240              65     585.172E-03     570.392E-03
             272              66     657.086E-03     665.455E-03
             256              66     657.086E-03     665.455E-03
             272              67     726.650E-03     732.732E-03
             288              67     726.650E-03     732.732E-03
             288              68     779.701E-03     797.562E-03
             304              68     779.701E-03     797.562E-03
             320              69     840.375E-03     843.903E-03
             304              69     840.375E-03     843.903E-03
             320              70     886.029E-03     901.517E-03
             336              70     886.029E-03     901.517E-03
             336              71     857.395E-03     880.737E-03
             352              71     857.395E-03     880.737E-03
             368              72     874.582E-03     859.647E-03
             352              72     874.582E-03     859.647E-03
             368              73     950.740E-03     962.225E-03
             384              73     950.740E-03     962.225E-03
             384              74         1.02199         1.03332
             400              74         1.02199         1.03332
             416              75         1.07505         1.09812
             400              75         1.07505         1.09812
             432              76         1.13405         1.14057
             416              76         1.13405         1.14057
             448              77         1.17521         1.19067
             432              77         1.17521         1.19067
             464              78         1.13987         1.17021
             448              78         1.13987         1.17021
             464              79         1.15887         1.15096
             480              79         1.15887         1.15096
             480              80         1.24900         1.25645
             496              80         1.24900         1.25645
             496              81         1.31116         1.34618
             512              81         1.31116         1.34618
             528              82         1.37540         1.38122
             512              82         1.37540         1.38122
             528              83         1.41093         1.43014
             544              83         1.41093         1.43014
            1009              84         1.29411         1.33691
             543              84         1.29411         1.33691
            1008              84         1.29411         1.33691
             544              84         1.29411         1.33691
             542              85         1.17102         1.20188
            1007              85         1.17102         1.20188
            1008              85         1.17102         1.20188
             543              85         1.17102         1.20188
            1007              86         1.07966         1.11123
             542              86         1.07966         1.11123
            1006              86         1.07966         1.11123
             541              86         1.07966         1.11123
            1005              87     992.425E-03         1.02699
            1006              87     992.425E-03         1.02699
             540              87     992.425E-03         1.02699
             541              87     992.425E-03         1.02699
            1005              88     909.236E-03     945.098E-03
            1004              88     909.236E-03     945.098E-03
             539              88     909.236E-03     945.098E-03
             540              88     909.236E-03     945.098E-03
             538              89     825.978E-03     863.063E-03
            1004              89     825.978E-03     863.063E-03
             539              89     825.978E-03     863.063E-03
            1003              89     825.978E-03     863.063E-03
            1002              90     743.097E-03     780.335E-03
             538              90     743.097E-03     780.335E-03
             537              90     743.097E-03     780.335E-03
            1003              90     743.097E-03     780.335E-03
             536              91     659.539E-03     697.100E-03
            1002              91     659.539E-03     697.100E-03
             537              91     659.539E-03     697.100E-03
            1001              91     659.539E-03     697.100E-03
            1000              92     575.807E-03     613.311E-03
            1001              92     575.807E-03     613.311E-03
             535              92     575.807E-03     613.311E-03
             536              92     575.807E-03     613.311E-03
            1000              93     491.570E-03     529.271E-03
             999              93     491.570E-03     529.271E-03
             534              93     491.570E-03     529.271E-03
             535              93     491.570E-03     529.271E-03
             998              94     407.346E-03     444.980E-03
             534              94     407.346E-03     444.980E-03
             533              94     407.346E-03     444.980E-03
             999              94     407.346E-03     444.980E-03
             532              95     323.189E-03     360.416E-03
             997              95     323.189E-03     360.416E-03
             533              95     323.189E-03     360.416E-03
             998              95     323.189E-03     360.416E-03
             997              96     239.677E-03     275.553E-03
             996              96     239.677E-03     275.553E-03
             531              96     239.677E-03     275.553E-03
             532              96     239.677E-03     275.553E-03
             530              97     157.925E-03     190.574E-03
             531              97     157.925E-03     190.574E-03
             995              97     157.925E-03     190.574E-03
             996              97     157.925E-03     190.574E-03
             530              98     80.8340E-03     107.091E-03
             994              98     80.8340E-03     107.091E-03
             529              98     80.8340E-03     107.091E-03
             995              98     80.8340E-03     107.091E-03
             513              99     35.8671E-03     76.2649E-03
             529              99     35.8671E-03     76.2649E-03
             513             100     37.3565E-03     79.6769E-03
             497             100     37.3565E-03     79.6769E-03
             481             101     83.3827E-03     90.3483E-03
             497             101     83.3827E-03     90.3483E-03
             481             102     131.371E-03     143.396E-03
             465             102     131.371E-03     143.396E-03
             465             103     166.413E-03     203.509E-03
             449             103     166.413E-03     203.509E-03
             449             104     110.087E-03     139.460E-03
             433             104     110.087E-03     139.460E-03
             433             105     26.8886E-03     59.3593E-03
             417             105     26.8886E-03     59.3593E-03
             417             106     32.9585E-03     57.1917E-03
             401             106     32.9585E-03     57.1917E-03
             401             107     67.0465E-03     75.8670E-03
             385             107     67.0465E-03     75.8670E-03
             385             108     102.219E-03     102.852E-03
             369             108     102.219E-03     102.852E-03
             353             109     140.152E-03     147.804E-03
             369             109     140.152E-03     147.804E-03
             337             110     164.941E-03     197.830E-03
             353             110     164.941E-03     197.830E-03
             337             111     93.8326E-03     123.038E-03
             321             111     93.8326E-03     123.038E-03
             321             112     21.9991E-03     38.6476E-03
             305             112     21.9991E-03     38.6476E-03
             289             113     44.1826E-03     48.5376E-03
             305             113     44.1826E-03     48.5376E-03
             289             114     70.7958E-03     70.8748E-03
             273             114     70.7958E-03     70.8748E-03
             257             115     96.6232E-03     92.3595E-03
             273             115     96.6232E-03     92.3595E-03
             257             116     123.936E-03     126.176E-03
             241             116     123.936E-03     126.176E-03
             241             117     139.636E-03     164.848E-03
             225             117     139.636E-03     164.848E-03
             225             118     85.3390E-03     108.785E-03
             209             118     85.3390E-03     108.785E-03
             209             119     41.6759E-03     44.5438E-03
             193             119     41.6759E-03     44.5438E-03
             177             120     63.3303E-03     57.6177E-03
             193             120     63.3303E-03     57.6177E-03
             161             121     81.0205E-03     71.8701E-03
             177             121     81.0205E-03     71.8701E-03
             145             122     98.9904E-03     94.8161E-03
             161             122     98.9904E-03     94.8161E-03
             145             123     107.171E-03     122.227E-03
             129             123     107.171E-03     122.227E-03
             113             124     79.0255E-03     96.7589E-03
             129             124     79.0255E-03     96.7589E-03
              97             125     59.6189E-03     65.0621E-03
             113             125     59.6189E-03     65.0621E-03
              97             126     73.3220E-03     64.5649E-03
              81             126     73.3220E-03     64.5649E-03
              65             127     80.0888E-03     71.1677E-03
              81             127     80.0888E-03     71.1677E-03
              49             128     86.8912E-03     77.3458E-03
              65             128     86.8912E-03     77.3458E-03
              49             129     94.1336E-03     88.0060E-03
              33             129     94.1336E-03     88.0060E-03
              17             130     92.5925E-03     104.578E-03
              33             130     92.5925E-03     104.578E-03
              17             131     47.4645E-03     57.6580E-03
               1             131     47.4645E-03     57.6580E-03
            2352             167     250.985E-06     274.185E-06
            2368             167     250.985E-06     274.185E-06
            2336             168     264.515E-06     242.251E-06
            2352             168     264.515E-06     242.251E-06
            2320             169     254.095E-06     221.310E-06
            2336             169     254.095E-06     221.310E-06
            2304             170     246.111E-06     221.858E-06
            2320             170     246.111E-06     221.858E-06
            2304             171     217.045E-06     231.991E-06
            2288             171     217.045E-06     231.991E-06
            2289             176     494.991E-06     520.447E-06
            2273             176     494.991E-06     520.447E-06
            2305             177     375.069E-06     372.493E-06
            2289             177     375.069E-06     372.493E-06
            2321             178     248.745E-06     252.106E-06
            2305             178     248.745E-06     252.106E-06
            2337             179     135.873E-06     127.256E-06
            2321             179     135.873E-06     127.256E-06
            2337             180     67.8608E-06     115.274E-06
            2353             180     67.8608E-06     115.274E-06
            1025             314         1.37100         1.38157
            1009             314         1.37100         1.38157
            1025             315         1.45440         1.46646
            1041             315         1.45440         1.46646
            1057             316         1.56193         1.56697
            1041             316         1.56193         1.56697
            1073             317         1.61063         1.64217
            1057             317         1.61063         1.64217
            1768             324         1.44862         1.56035
            1073             324         1.44862         1.56035
            1767             324         1.44862         1.56035
            1072             324         1.44862         1.56035
            1072             325         1.29529         1.39608
            1071             325         1.29529         1.39608
            1766             325         1.29529         1.39608
            1767             325         1.29529         1.39608
            1766             326         1.20485         1.30499
            1071             326         1.20485         1.30499
            1070             326         1.20485         1.30499
            1765             326         1.20485         1.30499
            1070             327         1.10604         1.20878
            1764             327         1.10604         1.20878
            1765             327         1.10604         1.20878
            1069             327         1.10604         1.20878
            1069             328         1.01215         1.11266
            1764             328         1.01215         1.11266
            1068             328         1.01215         1.11266
            1763             328         1.01215         1.11266
            1068             329     915.344E-03         1.01660
            1067             329     915.344E-03         1.01660
            1762             329     915.344E-03         1.01660
            1763             329     915.344E-03         1.01660
            1067             330     819.594E-03     918.786E-03
            1762             330     819.594E-03     918.786E-03
            1761             330     819.594E-03     918.786E-03
            1066             330     819.594E-03     918.786E-03
            1066             331     722.580E-03     821.451E-03
            1760             331     722.580E-03     821.451E-03
            1065             331     722.580E-03     821.451E-03
            1761             331     722.580E-03     821.451E-03
            1760             332     626.220E-03     723.461E-03
            1759             332     626.220E-03     723.461E-03
            1064             332     626.220E-03     723.461E-03
            1065             332     626.220E-03     723.461E-03
            1064             333     529.790E-03     625.932E-03
            1063             333     529.790E-03     625.932E-03
            1758             333     529.790E-03     625.932E-03
            1759             333     529.790E-03     625.932E-03
            1757             334     434.193E-03     528.555E-03
            1758             334     434.193E-03     528.555E-03
            1062             334     434.193E-03     528.555E-03
            1063             334     434.193E-03     528.555E-03
            1757             335     340.020E-03     432.059E-03
            1756             335     340.020E-03     432.059E-03
            1061             335     340.020E-03     432.059E-03
            1062             335     340.020E-03     432.059E-03
            1755             336     249.632E-03     336.220E-03
            1756             336     249.632E-03     336.220E-03
            1061             336     249.632E-03     336.220E-03
            1060             336     249.632E-03     336.220E-03
            1060             337     169.310E-03     241.888E-03
            1755             337     169.310E-03     241.888E-03
            1059             337     169.310E-03     241.888E-03
            1754             337     169.310E-03     241.888E-03
            1753             338     117.119E-03     154.732E-03
            1059             338     117.119E-03     154.732E-03
            1754             338     117.119E-03     154.732E-03
            1058             338     117.119E-03     154.732E-03
            1042             339     29.1874E-03     54.0636E-03
            1058             339     29.1874E-03     54.0636E-03
            1042             340     54.5874E-03     94.2036E-03
            1026             340     54.5874E-03     94.2036E-03
            1026             341     115.761E-03     147.367E-03
            1010             341     115.761E-03     147.367E-03
             994             342     89.7866E-03     109.745E-03
            1010             342     89.7866E-03     109.745E-03
            1768             393         1.45375         1.47609
            1784             393         1.45375         1.47609
            1800             394         1.38498         1.40517
            1784             394         1.38498         1.40517
            1816             395         1.32894         1.37949
            1800             395         1.32894         1.37949
            1832             396         1.14909         1.10715
            1816             396         1.14909         1.10715
            1832             397         1.01491         1.05232
            3026             397         1.01491         1.05232
            1831             397         1.01491         1.05232
            3025             397         1.01491         1.05232
            3024             398     964.276E-03     987.131E-03
            1830             398     964.276E-03     987.131E-03
            1831             398     964.276E-03     987.131E-03
            3025             398     964.276E-03     987.131E-03
            3023             399     908.667E-03     930.464E-03
            1830             399     908.667E-03     930.464E-03
            3024             399     908.667E-03     930.464E-03
            1829             399     908.667E-03     930.464E-03
            3022             400     839.626E-03     863.693E-03
            3023             400     839.626E-03     863.693E-03
            1828             400     839.626E-03     863.693E-03
            1829             400     839.626E-03     863.693E-03
            3021             401     772.812E-03     797.130E-03
            1828             401     772.812E-03     797.130E-03
            3022             401     772.812E-03     797.130E-03
            1827             401     772.812E-03     797.130E-03
            3021             402     704.768E-03     729.035E-03
            1826             402     704.768E-03     729.035E-03
            3020             402     704.768E-03     729.035E-03
            1827             402     704.768E-03     729.035E-03
            3019             403     637.182E-03     661.502E-03
            3020             403     637.182E-03     661.502E-03
            1825             403     637.182E-03     661.502E-03
            1826             403     637.182E-03     661.502E-03
            1825             404     569.765E-03     594.045E-03
            3018             404     569.765E-03     594.045E-03
            3019             404     569.765E-03     594.045E-03
            1824             404     569.765E-03     594.045E-03
            1824             405     503.267E-03     527.527E-03
            3018             405     503.267E-03     527.527E-03
            3017             405     503.267E-03     527.527E-03
            1823             405     503.267E-03     527.527E-03
            1823             406     438.160E-03     462.214E-03
            1822             406     438.160E-03     462.214E-03
            3016             406     438.160E-03     462.214E-03
            3017             406     438.160E-03     462.214E-03
            3015             407     375.295E-03     398.915E-03
            1822             407     375.295E-03     398.915E-03
            1821             407     375.295E-03     398.915E-03
            3016             407     375.295E-03     398.915E-03
            3015             408     316.237E-03     338.803E-03
            3014             408     316.237E-03     338.803E-03
            1821             408     316.237E-03     338.803E-03
            1820             408     316.237E-03     338.803E-03
            1820             409     263.362E-03     284.643E-03
            3013             409     263.362E-03     284.643E-03
            3014             409     263.362E-03     284.643E-03
            1819             409     263.362E-03     284.643E-03
            3012             410     222.869E-03     240.384E-03
            3013             410     222.869E-03     240.384E-03
            1818             410     222.869E-03     240.384E-03
            1819             410     222.869E-03     240.384E-03
            1817             411     188.391E-03     196.640E-03
            1818             411     188.391E-03     196.640E-03
            3011             411     188.391E-03     196.640E-03
            3012             411     188.391E-03     196.640E-03
            1801             412     203.077E-03     207.833E-03
            1817             412     203.077E-03     207.833E-03
            1801             413     161.759E-03     154.723E-03
            1785             413     161.759E-03     154.723E-03
            1785             414     156.753E-03     144.207E-03
            1769             414     156.753E-03     144.207E-03
            1769             415     179.643E-03     178.427E-03
            1753             415     179.643E-03     178.427E-03
            3042             470         1.00576         1.05801
            3026             470         1.00576         1.05801
            3042             471     844.284E-03     794.523E-03
            3058             471     844.284E-03     794.523E-03
            3074             472     799.257E-03     834.695E-03
            3058             472     799.257E-03     834.695E-03
            3090             473     828.773E-03     866.370E-03
            3074             473     828.773E-03     866.370E-03
            3106             474     706.137E-03     698.160E-03
            3090             474     706.137E-03     698.160E-03
            3106             475     560.937E-03     577.256E-03
            3122             475     560.937E-03     577.256E-03
            3138             476     444.991E-03     433.722E-03
            3122             476     444.991E-03     433.722E-03
            3138             477     314.720E-03     307.493E-03
            3154             477     314.720E-03     307.493E-03
            3170             478     200.737E-03     227.365E-03
            3154             478     200.737E-03     227.365E-03
            3186             479     97.2180E-03     124.507E-03
            3170             479     97.2180E-03     124.507E-03
            2367             492     247.219E-06     277.135E-06
            2368             492     247.219E-06     277.135E-06
            2366             493     266.454E-06     264.211E-06
            2367             493     266.454E-06     264.211E-06
            2366             494     272.406E-06     261.654E-06
            2365             494     272.406E-06     261.654E-06
            2364             495     277.650E-06     262.694E-06
            2365             495     277.650E-06     262.694E-06
            2363             496     282.721E-06     263.863E-06
            2364             496     282.721E-06     263.863E-06
            2362             497     287.718E-06     266.383E-06
            2363             497     287.718E-06     266.383E-06
            2361             498     292.775E-06     268.615E-06
            2362             498     292.775E-06     268.615E-06
            2361             499     298.091E-06     271.689E-06
            2360             499     298.091E-06     271.689E-06
            2359             500     301.935E-06     273.658E-06
            2360             500     301.935E-06     273.658E-06
            2358             501     305.335E-06     274.615E-06
            2359             501     305.335E-06     274.615E-06
            2358             502     302.659E-06     271.113E-06
            2357             502     302.659E-06     271.113E-06
            2356             503     293.861E-06     258.825E-06
            2357             503     293.861E-06     258.825E-06
            2355             504     265.080E-06     228.281E-06
            2356             504     265.080E-06     228.281E-06
            2354             505     215.524E-06     172.427E-06
            2355             505     215.524E-06     172.427E-06
            2353             506     131.584E-06     146.924E-06
            2354             506     131.584E-06     146.924E-06
            3027             522     168.066E-03     162.106E-03
            3011             522     168.066E-03     162.106E-03
            3043             523     195.749E-03     196.367E-03
            3027             523     195.749E-03     196.367E-03
            3059             524     165.806E-03     177.098E-03
            3043             524     165.806E-03     177.098E-03
            3059             525     155.074E-03     161.622E-03
            3075             525     155.074E-03     161.622E-03
            3091             526     181.675E-03     160.022E-03
            3075             526     181.675E-03     160.022E-03
            3091             527     197.360E-03     174.195E-03
            3107             527     197.360E-03     174.195E-03
            3107             528     212.885E-03     189.139E-03
            3123             528     212.885E-03     189.139E-03
            3139             529     229.736E-03     215.265E-03
            3123             529     229.736E-03     215.265E-03
            3155             530     227.628E-03     254.983E-03
            3139             530     227.628E-03     254.983E-03
            3171             531     112.639E-03     135.266E-03
            3155             531     112.639E-03     135.266E-03
            3171             547     2.96624E-03     3.96145E-03
            3172             547     2.96624E-03     3.96145E-03
            2545             547     2.96624E-03     3.96145E-03
            2546             547     2.96624E-03     3.96145E-03
            3172             548     3.83099E-03     4.75685E-03
            3173             548     3.83099E-03     4.75685E-03
            2546             548     3.83099E-03     4.75685E-03
            2547             548     3.83099E-03     4.75685E-03
            3173             549     4.89918E-03     5.74938E-03
            2548             549     4.89918E-03     5.74938E-03
            2547             549     4.89918E-03     5.74938E-03
            3174             549     4.89918E-03     5.74938E-03
            2549             550     6.06319E-03     6.85095E-03
            3175             550     6.06319E-03     6.85095E-03
            2548             550     6.06319E-03     6.85095E-03
            3174             550     6.06319E-03     6.85095E-03
            3176             551     7.27574E-03     8.01500E-03
            2549             551     7.27574E-03     8.01500E-03
            2550             551     7.27574E-03     8.01500E-03
            3175             551     7.27574E-03     8.01500E-03
            2551             552     8.51559E-03     9.21764E-03
            3177             552     8.51559E-03     9.21764E-03
            3176             552     8.51559E-03     9.21764E-03
            2550             552     8.51559E-03     9.21764E-03
            3177             553     9.77255E-03     10.4450E-03
            2551             553     9.77255E-03     10.4450E-03
            3178             553     9.77255E-03     10.4450E-03
            2552             553     9.77255E-03     10.4450E-03
            3178             554     11.0408E-03     11.6895E-03
            2552             554     11.0408E-03     11.6895E-03
            3179             554     11.0408E-03     11.6895E-03
            2553             554     11.0408E-03     11.6895E-03
            2553             555     12.3165E-03     12.9458E-03
            3180             555     12.3165E-03     12.9458E-03
            2554             555     12.3165E-03     12.9458E-03
            3179             555     12.3165E-03     12.9458E-03
            3181             556     13.5979E-03     14.2109E-03
            2554             556     13.5979E-03     14.2109E-03
            2555             556     13.5979E-03     14.2109E-03
            3180             556     13.5979E-03     14.2109E-03
            3182             557     14.8823E-03     15.4820E-03
            2556             557     14.8823E-03     15.4820E-03
            2555             557     14.8823E-03     15.4820E-03
            3181             557     14.8823E-03     15.4820E-03
            2557             558     16.1703E-03     16.7583E-03
            3182             558     16.1703E-03     16.7583E-03
            2556             558     16.1703E-03     16.7583E-03
            3183             558     16.1703E-03     16.7583E-03
            3184             559     17.4623E-03     18.0412E-03
            3183             559     17.4623E-03     18.0412E-03
            2557             559     17.4623E-03     18.0412E-03
            2558             559     17.4623E-03     18.0412E-03
            2559             560     18.7656E-03     19.3384E-03
            3184             560     18.7656E-03     19.3384E-03
            3185             560     18.7656E-03     19.3384E-03
            2558             560     18.7656E-03     19.3384E-03
            3186             561     20.1172E-03     20.6931E-03
            2559             561     20.1172E-03     20.6931E-03
            2560             561     20.1172E-03     20.6931E-03
            3185             561     20.1172E-03     20.6931E-03
            2560             562     492.085E-06     517.720E-06
            2576             562     492.085E-06     517.720E-06
            2576             563     372.755E-06     370.147E-06
            2592             563     372.755E-06     370.147E-06
            2608             564     246.838E-06     250.185E-06
            2592             564     246.838E-06     250.185E-06
            2624             565     134.296E-06     125.806E-06
            2608             565     134.296E-06     125.806E-06
            2640             566     67.0317E-06     114.656E-06
            2624             566     67.0317E-06     114.656E-06
            2640             567     131.776E-06     147.249E-06
            2639             567     131.776E-06     147.249E-06
            2639             568     215.924E-06     172.867E-06
            2638             568     215.924E-06     172.867E-06
            2638             569     265.126E-06     228.339E-06
            2637             569     265.126E-06     228.339E-06
            2636             570     293.660E-06     258.593E-06
            2637             570     293.660E-06     258.593E-06
            2635             571     302.251E-06     270.661E-06
            2636             571     302.251E-06     270.661E-06
            2635             572     304.798E-06     274.023E-06
            2634             572     304.798E-06     274.023E-06
            2634             573     301.341E-06     273.019E-06
            2633             573     301.341E-06     273.019E-06
            2632             574     297.490E-06     271.037E-06
            2633             574     297.490E-06     271.037E-06
            2632             575     292.186E-06     267.981E-06
            2631             575     292.186E-06     267.981E-06
            2631             576     287.154E-06     265.781E-06
            2630             576     287.154E-06     265.781E-06
            2629             577     282.187E-06     263.295E-06
            2630             577     282.187E-06     263.295E-06
            2629             578     277.152E-06     262.155E-06
            2628             578     277.152E-06     262.155E-06
            2628             579     271.934E-06     261.127E-06
            2627             579     271.934E-06     261.127E-06
            2627             580     266.028E-06     263.675E-06
            2626             580     266.028E-06     263.675E-06
            2625             581     246.809E-06     276.605E-06
            2626             581     246.809E-06     276.605E-06
            2609             582     250.542E-06     273.769E-06
            2625             582     250.542E-06     273.769E-06
            2593             583     264.202E-06     241.928E-06
            2609             583     264.202E-06     241.928E-06
            2593             584     253.983E-06     220.988E-06
            2577             584     253.983E-06     220.988E-06
            2577             585     246.029E-06     221.757E-06
            2561             585     246.029E-06     221.757E-06
            2545             586     217.022E-06     232.095E-06
            2561             586     217.022E-06     232.095E-06
               1             635     50.7915E-03     56.4305E-03
              17             635     50.7915E-03     56.4305E-03
              18             635     50.7915E-03     56.4305E-03
               2             635     50.7915E-03     56.4305E-03
              19             636     55.4528E-03     54.6544E-03
               2             636     55.4528E-03     54.6544E-03
              18             636     55.4528E-03     54.6544E-03
               3             636     55.4528E-03     54.6544E-03
               3             637     58.3270E-03     55.2392E-03
               4             637     58.3270E-03     55.2392E-03
              20             637     58.3270E-03     55.2392E-03
              19             637     58.3270E-03     55.2392E-03
               4             638     61.4484E-03     57.2219E-03
              21             638     61.4484E-03     57.2219E-03
              20             638     61.4484E-03     57.2219E-03
               5             638     61.4484E-03     57.2219E-03
              22             639     64.8330E-03     59.5582E-03
               5             639     64.8330E-03     59.5582E-03
               6             639     64.8330E-03     59.5582E-03
              21             639     64.8330E-03     59.5582E-03
              22             640     68.5299E-03     62.4114E-03
              23             640     68.5299E-03     62.4114E-03
               7             640     68.5299E-03     62.4114E-03
               6             640     68.5299E-03     62.4114E-03
               8             641     72.3662E-03     65.5272E-03
              24             641     72.3662E-03     65.5272E-03
              23             641     72.3662E-03     65.5272E-03
               7             641     72.3662E-03     65.5272E-03
              25             642     76.2457E-03     68.7027E-03
              24             642     76.2457E-03     68.7027E-03
               9             642     76.2457E-03     68.7027E-03
               8             642     76.2457E-03     68.7027E-03
              25             643     79.8856E-03     71.7240E-03
              10             643     79.8856E-03     71.7240E-03
              26             643     79.8856E-03     71.7240E-03
               9             643     79.8856E-03     71.7240E-03
              11             644     83.0073E-03     74.1836E-03
              27             644     83.0073E-03     74.1836E-03
              26             644     83.0073E-03     74.1836E-03
              10             644     83.0073E-03     74.1836E-03
              28             645     84.7065E-03     75.1683E-03
              27             645     84.7065E-03     75.1683E-03
              11             645     84.7065E-03     75.1683E-03
              12             645     84.7065E-03     75.1683E-03
              28             646     84.5726E-03     74.0307E-03
              29             646     84.5726E-03     74.0307E-03
              12             646     84.5726E-03     74.0307E-03
              13             646     84.5726E-03     74.0307E-03
              30             647     79.7549E-03     67.9265E-03
              13             647     79.7549E-03     67.9265E-03
              14             647     79.7549E-03     67.9265E-03
              29             647     79.7549E-03     67.9265E-03
              14             648     69.7088E-03     55.9141E-03
              30             648     69.7088E-03     55.9141E-03
              15             648     69.7088E-03     55.9141E-03
              31             648     69.7088E-03     55.9141E-03
              31             649     54.9681E-03     52.4188E-03
              16             649     54.9681E-03     52.4188E-03
              15             649     54.9681E-03     52.4188E-03
              32             649     54.9681E-03     52.4188E-03
              34             650     94.5646E-03     102.479E-03
              17             650     94.5646E-03     102.479E-03
              33             650     94.5646E-03     102.479E-03
              18             650     94.5646E-03     102.479E-03
              35             651     99.4243E-03     99.6441E-03
              19             651     99.4243E-03     99.6441E-03
              34             651     99.4243E-03     99.6441E-03
              18             651     99.4243E-03     99.6441E-03
              36             652     105.269E-03     100.190E-03
              19             652     105.269E-03     100.190E-03
              20             652     105.269E-03     100.190E-03
              35             652     105.269E-03     100.190E-03
              20             653     111.067E-03     103.435E-03
              21             653     111.067E-03     103.435E-03
              36             653     111.067E-03     103.435E-03
              37             653     111.067E-03     103.435E-03
              37             654     117.310E-03     107.925E-03
              21             654     117.310E-03     107.925E-03
              38             654     117.310E-03     107.925E-03
              22             654     117.310E-03     107.925E-03
              23             655     124.143E-03     113.397E-03
              39             655     124.143E-03     113.397E-03
              22             655     124.143E-03     113.397E-03
              38             655     124.143E-03     113.397E-03
              40             656     131.361E-03     119.470E-03
              24             656     131.361E-03     119.470E-03
              23             656     131.361E-03     119.470E-03
              39             656     131.361E-03     119.470E-03
              41             657     138.871E-03     125.908E-03
              25             657     138.871E-03     125.908E-03
              24             657     138.871E-03     125.908E-03
              40             657     138.871E-03     125.908E-03
              25             658     146.214E-03     132.342E-03
              42             658     146.214E-03     132.342E-03
              41             658     146.214E-03     132.342E-03
              26             658     146.214E-03     132.342E-03
              26             659     152.958E-03     138.023E-03
              42             659     152.958E-03     138.023E-03
              43             659     152.958E-03     138.023E-03
              27             659     152.958E-03     138.023E-03
              27             660     157.826E-03     141.947E-03
              28             660     157.826E-03     141.947E-03
              44             660     157.826E-03     141.947E-03
              43             660     157.826E-03     141.947E-03
              29             661     158.474E-03     141.454E-03
              45             661     158.474E-03     141.454E-03
              28             661     158.474E-03     141.454E-03
              44             661     158.474E-03     141.454E-03
              46             662     151.646E-03     133.066E-03
              30             662     151.646E-03     133.066E-03
              45             662     151.646E-03     133.066E-03
              29             662     151.646E-03     133.066E-03
              31             663     127.239E-03     108.894E-03
              47             663     127.239E-03     108.894E-03
              46             663     127.239E-03     108.894E-03
              30             663     127.239E-03     108.894E-03
              31             664     100.479E-03     96.5962E-03
              48             664     100.479E-03     96.5962E-03
              47             664     100.479E-03     96.5962E-03
              32             664     100.479E-03     96.5962E-03
              49             665     92.7446E-03     90.6348E-03
              34             665     92.7446E-03     90.6348E-03
              33             665     92.7446E-03     90.6348E-03
              50             665     92.7446E-03     90.6348E-03
              51             666     92.8799E-03     93.7497E-03
              50             666     92.8799E-03     93.7497E-03
              35             666     92.8799E-03     93.7497E-03
              34             666     92.8799E-03     93.7497E-03
              52             667     97.4219E-03     95.4864E-03
              35             667     97.4219E-03     95.4864E-03
              36             667     97.4219E-03     95.4864E-03
              51             667     97.4219E-03     95.4864E-03
              37             668     103.494E-03     99.3173E-03
              53             668     103.494E-03     99.3173E-03
              52             668     103.494E-03     99.3173E-03
              36             668     103.494E-03     99.3173E-03
              38             669     110.039E-03     104.918E-03
              54             669     110.039E-03     104.918E-03
              37             669     110.039E-03     104.918E-03
              53             669     110.039E-03     104.918E-03
              54             670     117.461E-03     111.520E-03
              39             670     117.461E-03     111.520E-03
              38             670     117.461E-03     111.520E-03
              55             670     117.461E-03     111.520E-03
              40             671     125.595E-03     119.080E-03
              39             671     125.595E-03     119.080E-03
              55             671     125.595E-03     119.080E-03
              56             671     125.595E-03     119.080E-03
              56             672     134.337E-03     127.339E-03
              40             672     134.337E-03     127.339E-03
              57             672     134.337E-03     127.339E-03
              41             672     134.337E-03     127.339E-03
              42             673     143.625E-03     136.184E-03
              57             673     143.625E-03     136.184E-03
              58             673     143.625E-03     136.184E-03
              41             673     143.625E-03     136.184E-03
              42             674     152.905E-03     145.111E-03
              43             674     152.905E-03     145.111E-03
              58             674     152.905E-03     145.111E-03
              59             674     152.905E-03     145.111E-03
              59             675     161.698E-03     153.516E-03
              43             675     161.698E-03     153.516E-03
              60             675     161.698E-03     153.516E-03
              44             675     161.698E-03     153.516E-03
              45             676     166.861E-03     158.892E-03
              60             676     166.861E-03     158.892E-03
              61             676     166.861E-03     158.892E-03
              44             676     166.861E-03     158.892E-03
              45             677     164.161E-03     157.345E-03
              46             677     164.161E-03     157.345E-03
              62             677     164.161E-03     157.345E-03
              61             677     164.161E-03     157.345E-03
              46             678     142.241E-03     139.310E-03
              47             678     142.241E-03     139.310E-03
              63             678     142.241E-03     139.310E-03
              62             678     142.241E-03     139.310E-03
              47             679     131.671E-03     130.118E-03
              48             679     131.671E-03     130.118E-03
              63             679     131.671E-03     130.118E-03
              64             679     131.671E-03     130.118E-03
              66             680     87.2272E-03     79.7381E-03
              49             680     87.2272E-03     79.7381E-03
              65             680     87.2272E-03     79.7381E-03
              50             680     87.2272E-03     79.7381E-03
              67             681     88.1456E-03     85.0642E-03
              66             681     88.1456E-03     85.0642E-03
              51             681     88.1456E-03     85.0642E-03
              50             681     88.1456E-03     85.0642E-03
              68             682     90.7667E-03     90.4415E-03
              52             682     90.7667E-03     90.4415E-03
              67             682     90.7667E-03     90.4415E-03
              51             682     90.7667E-03     90.4415E-03
              52             683     95.9872E-03     95.8511E-03
              68             683     95.9872E-03     95.8511E-03
              53             683     95.9872E-03     95.8511E-03
              69             683     95.9872E-03     95.8511E-03
              54             684     102.838E-03     102.432E-03
              69             684     102.838E-03     102.432E-03
              53             684     102.838E-03     102.432E-03
              70             684     102.838E-03     102.432E-03
              71             685     110.696E-03     110.160E-03
              54             685     110.696E-03     110.160E-03
              70             685     110.696E-03     110.160E-03
              55             685     110.696E-03     110.160E-03
              55             686     119.492E-03     118.873E-03
              72             686     119.492E-03     118.873E-03
              56             686     119.492E-03     118.873E-03
              71             686     119.492E-03     118.873E-03
              57             687     129.111E-03     128.478E-03
              56             687     129.111E-03     128.478E-03
              72             687     129.111E-03     128.478E-03
              73             687     129.111E-03     128.478E-03
              74             688     139.436E-03     138.805E-03
              58             688     139.436E-03     138.805E-03
              57             688     139.436E-03     138.805E-03
              73             688     139.436E-03     138.805E-03
              74             689     150.399E-03     149.834E-03
              75             689     150.399E-03     149.834E-03
              59             689     150.399E-03     149.834E-03
              58             689     150.399E-03     149.834E-03
              76             690     160.852E-03     160.603E-03
              75             690     160.852E-03     160.603E-03
              60             690     160.852E-03     160.603E-03
              59             690     160.852E-03     160.603E-03
              61             691     170.351E-03     170.395E-03
              76             691     170.351E-03     170.395E-03
              77             691     170.351E-03     170.395E-03
              60             691     170.351E-03     170.395E-03
              78             692     172.026E-03     174.525E-03
              62             692     172.026E-03     174.525E-03
              61             692     172.026E-03     174.525E-03
              77             692     172.026E-03     174.525E-03
              62             693     164.692E-03     169.837E-03
              78             693     164.692E-03     169.837E-03
              63             693     164.692E-03     169.837E-03
              79             693     164.692E-03     169.837E-03
              63             694     176.432E-03     176.738E-03
              80             694     176.432E-03     176.738E-03
              64             694     176.432E-03     176.738E-03
              79             694     176.432E-03     176.738E-03
              65             695     80.3796E-03     72.9677E-03
              82             695     80.3796E-03     72.9677E-03
              81             695     80.3796E-03     72.9677E-03
              66             695     80.3796E-03     72.9677E-03
              82             696     81.2811E-03     78.4361E-03
              66             696     81.2811E-03     78.4361E-03
              67             696     81.2811E-03     78.4361E-03
              83             696     81.2811E-03     78.4361E-03
              67             697     83.6293E-03     85.6392E-03
              84             697     83.6293E-03     85.6392E-03
              68             697     83.6293E-03     85.6392E-03
              83             697     83.6293E-03     85.6392E-03
              84             698     88.4576E-03     92.6200E-03
              85             698     88.4576E-03     92.6200E-03
              68             698     88.4576E-03     92.6200E-03
              69             698     88.4576E-03     92.6200E-03
              85             699     95.3921E-03     100.172E-03
              70             699     95.3921E-03     100.172E-03
              86             699     95.3921E-03     100.172E-03
              69             699     95.3921E-03     100.172E-03
              87             700     103.529E-03     108.825E-03
              86             700     103.529E-03     108.825E-03
              71             700     103.529E-03     108.825E-03
              70             700     103.529E-03     108.825E-03
              72             701     112.612E-03     118.286E-03
              71             701     112.612E-03     118.286E-03
              87             701     112.612E-03     118.286E-03
              88             701     112.612E-03     118.286E-03
              88             702     122.545E-03     128.530E-03
              89             702     122.545E-03     128.530E-03
              73             702     122.545E-03     128.530E-03
              72             702     122.545E-03     128.530E-03
              73             703     133.151E-03     139.469E-03
              89             703     133.151E-03     139.469E-03
              90             703     133.151E-03     139.469E-03
              74             703     133.151E-03     139.469E-03
              90             704     144.324E-03     150.957E-03
              91             704     144.324E-03     150.957E-03
              74             704     144.324E-03     150.957E-03
              75             704     144.324E-03     150.957E-03
              75             705     155.879E-03     163.025E-03
              92             705     155.879E-03     163.025E-03
              76             705     155.879E-03     163.025E-03
              91             705     155.879E-03     163.025E-03
              92             706     166.831E-03     174.717E-03
              76             706     166.831E-03     174.717E-03
              93             706     166.831E-03     174.717E-03
              77             706     166.831E-03     174.717E-03
              77             707     178.630E-03     186.512E-03
              93             707     178.630E-03     186.512E-03
              78             707     178.630E-03     186.512E-03
              94             707     178.630E-03     186.512E-03
              78             708     193.382E-03     199.328E-03
              94             708     193.382E-03     199.328E-03
              95             708     193.382E-03     199.328E-03
              79             708     193.382E-03     199.328E-03
              80             709     220.780E-03     226.346E-03
              96             709     220.780E-03     226.346E-03
              95             709     220.780E-03     226.346E-03
              79             709     220.780E-03     226.346E-03
              97             710     72.2540E-03     68.2860E-03
              98             710     72.2540E-03     68.2860E-03
              81             710     72.2540E-03     68.2860E-03
              82             710     72.2540E-03     68.2860E-03
              82             711     71.9287E-03     75.1517E-03
              98             711     71.9287E-03     75.1517E-03
              99             711     71.9287E-03     75.1517E-03
              83             711     71.9287E-03     75.1517E-03
              84             712     75.0812E-03     81.7775E-03
              99             712     75.0812E-03     81.7775E-03
              83             712     75.0812E-03     81.7775E-03
             100             712     75.0812E-03     81.7775E-03
             100             713     80.6111E-03     89.4408E-03
              85             713     80.6111E-03     89.4408E-03
             101             713     80.6111E-03     89.4408E-03
              84             713     80.6111E-03     89.4408E-03
              86             714     87.5279E-03     98.0750E-03
              85             714     87.5279E-03     98.0750E-03
             101             714     87.5279E-03     98.0750E-03
             102             714     87.5279E-03     98.0750E-03
              86             715     95.7617E-03     107.320E-03
             102             715     95.7617E-03     107.320E-03
             103             715     95.7617E-03     107.320E-03
              87             715     95.7617E-03     107.320E-03
             103             716     104.929E-03     117.266E-03
             104             716     104.929E-03     117.266E-03
              87             716     104.929E-03     117.266E-03
              88             716     104.929E-03     117.266E-03
             104             717     114.741E-03     127.645E-03
              89             717     114.741E-03     127.645E-03
              88             717     114.741E-03     127.645E-03
             105             717     114.741E-03     127.645E-03
              89             718     125.129E-03     138.505E-03
             106             718     125.129E-03     138.505E-03
             105             718     125.129E-03     138.505E-03
              90             718     125.129E-03     138.505E-03
              91             719     135.860E-03     149.720E-03
             107             719     135.860E-03     149.720E-03
              90             719     135.860E-03     149.720E-03
             106             719     135.860E-03     149.720E-03
             108             720     147.386E-03     161.693E-03
             107             720     147.386E-03     161.693E-03
              91             720     147.386E-03     161.693E-03
              92             720     147.386E-03     161.693E-03
             108             721     159.898E-03     174.919E-03
              93             721     159.898E-03     174.919E-03
             109             721     159.898E-03     174.919E-03
              92             721     159.898E-03     174.919E-03
              94             722     177.481E-03     191.881E-03
              93             722     177.481E-03     191.881E-03
             109             722     177.481E-03     191.881E-03
             110             722     177.481E-03     191.881E-03
             111             723     212.661E-03     222.495E-03
              94             723     212.661E-03     222.495E-03
              95             723     212.661E-03     222.495E-03
             110             723     212.661E-03     222.495E-03
              96             724     268.296E-03     269.815E-03
             112             724     268.296E-03     269.815E-03
             111             724     268.296E-03     269.815E-03
              95             724     268.296E-03     269.815E-03
             114             725     59.9780E-03     66.9152E-03
              98             725     59.9780E-03     66.9152E-03
              97             725     59.9780E-03     66.9152E-03
             113             725     59.9780E-03     66.9152E-03
              98             726     62.0226E-03     71.6036E-03
              99             726     62.0226E-03     71.6036E-03
             114             726     62.0226E-03     71.6036E-03
             115             726     62.0226E-03     71.6036E-03
             116             727     66.3164E-03     78.3165E-03
             115             727     66.3164E-03     78.3165E-03
             100             727     66.3164E-03     78.3165E-03
              99             727     66.3164E-03     78.3165E-03
             100             728     72.0605E-03     86.7396E-03
             116             728     72.0605E-03     86.7396E-03
             117             728     72.0605E-03     86.7396E-03
             101             728     72.0605E-03     86.7396E-03
             117             729     79.1580E-03     96.0299E-03
             101             729     79.1580E-03     96.0299E-03
             102             729     79.1580E-03     96.0299E-03
             118             729     79.1580E-03     96.0299E-03
             102             730     87.4487E-03     105.865E-03
             118             730     87.4487E-03     105.865E-03
             119             730     87.4487E-03     105.865E-03
             103             730     87.4487E-03     105.865E-03
             119             731     96.5891E-03     116.025E-03
             120             731     96.5891E-03     116.025E-03
             104             731     96.5891E-03     116.025E-03
             103             731     96.5891E-03     116.025E-03
             121             732     106.292E-03     126.508E-03
             104             732     106.292E-03     126.508E-03
             105             732     106.292E-03     126.508E-03
             120             732     106.292E-03     126.508E-03
             121             733     116.329E-03     137.069E-03
             122             733     116.329E-03     137.069E-03
             105             733     116.329E-03     137.069E-03
             106             733     116.329E-03     137.069E-03
             123             734     126.863E-03     148.054E-03
             122             734     126.863E-03     148.054E-03
             106             734     126.863E-03     148.054E-03
             107             734     126.863E-03     148.054E-03
             124             735     137.936E-03     159.543E-03
             108             735     137.936E-03     159.543E-03
             123             735     137.936E-03     159.543E-03
             107             735     137.936E-03     159.543E-03
             109             736     152.081E-03     173.880E-03
             125             736     152.081E-03     173.880E-03
             124             736     152.081E-03     173.880E-03
             108             736     152.081E-03     173.880E-03
             110             737     171.700E-03     193.962E-03
             109             737     171.700E-03     193.962E-03
             126             737     171.700E-03     193.962E-03
             125             737     171.700E-03     193.962E-03
             111             738     210.030E-03     232.593E-03
             126             738     210.030E-03     232.593E-03
             110             738     210.030E-03     232.593E-03
             127             738     210.030E-03     232.593E-03
             128             739     293.885E-03     312.913E-03
             127             739     293.885E-03     312.913E-03
             112             739     293.885E-03     312.913E-03
             111             739     293.885E-03     312.913E-03
             113             740     85.8421E-03     96.9997E-03
             129             740     85.8421E-03     96.9997E-03
             130             740     85.8421E-03     96.9997E-03
             114             740     85.8421E-03     96.9997E-03
             114             741     97.4171E-03     100.303E-03
             115             741     97.4171E-03     100.303E-03
             130             741     97.4171E-03     100.303E-03
             131             741     97.4171E-03     100.303E-03
             131             742     108.142E-03     109.884E-03
             116             742     108.142E-03     109.884E-03
             115             742     108.142E-03     109.884E-03
             132             742     108.142E-03     109.884E-03
             117             743     120.963E-03     123.372E-03
             133             743     120.963E-03     123.372E-03
             132             743     120.963E-03     123.372E-03
             116             743     120.963E-03     123.372E-03
             133             744     135.460E-03     138.123E-03
             117             744     135.460E-03     138.123E-03
             134             744     135.460E-03     138.123E-03
             118             744     135.460E-03     138.123E-03
             134             745     151.269E-03     154.308E-03
             118             745     151.269E-03     154.308E-03
             135             745     151.269E-03     154.308E-03
             119             745     151.269E-03     154.308E-03
             135             746     167.817E-03     170.959E-03
             119             746     167.817E-03     170.959E-03
             120             746     167.817E-03     170.959E-03
             136             746     167.817E-03     170.959E-03
             136             747     184.878E-03     188.155E-03
             120             747     184.878E-03     188.155E-03
             121             747     184.878E-03     188.155E-03
             137             747     184.878E-03     188.155E-03
             122             748     202.012E-03     205.233E-03
             121             748     202.012E-03     205.233E-03
             137             748     202.012E-03     205.233E-03
             138             748     202.012E-03     205.233E-03
             139             749     219.136E-03     222.236E-03
             123             749     219.136E-03     222.236E-03
             122             749     219.136E-03     222.236E-03
             138             749     219.136E-03     222.236E-03
             140             750     235.956E-03     238.707E-03
             123             750     235.956E-03     238.707E-03
             124             750     235.956E-03     238.707E-03
             139             750     235.956E-03     238.707E-03
             140             751     252.357E-03     254.539E-03
             124             751     252.357E-03     254.539E-03
             141             751     252.357E-03     254.539E-03
             125             751     252.357E-03     254.539E-03
             142             752     269.320E-03     270.338E-03
             125             752     269.320E-03     270.338E-03
             141             752     269.320E-03     270.338E-03
             126             752     269.320E-03     270.338E-03
             143             753     286.553E-03     287.750E-03
             126             753     286.553E-03     287.750E-03
             142             753     286.553E-03     287.750E-03
             127             753     286.553E-03     287.750E-03
             144             754     314.486E-03     321.527E-03
             143             754     314.486E-03     321.527E-03
             128             754     314.486E-03     321.527E-03
             127             754     314.486E-03     321.527E-03
             146             755     112.915E-03     121.693E-03
             130             755     112.915E-03     121.693E-03
             129             755     112.915E-03     121.693E-03
             145             755     112.915E-03     121.693E-03
             131             756     127.264E-03     125.526E-03
             146             756     127.264E-03     125.526E-03
             130             756     127.264E-03     125.526E-03
             147             756     127.264E-03     125.526E-03
             132             757     145.900E-03     138.372E-03
             131             757     145.900E-03     138.372E-03
             148             757     145.900E-03     138.372E-03
             147             757     145.900E-03     138.372E-03
             133             758     166.775E-03     157.011E-03
             148             758     166.775E-03     157.011E-03
             149             758     166.775E-03     157.011E-03
             132             758     166.775E-03     157.011E-03
             150             759     189.408E-03     178.522E-03
             134             759     189.408E-03     178.522E-03
             133             759     189.408E-03     178.522E-03
             149             759     189.408E-03     178.522E-03
             150             760     213.463E-03     201.821E-03
             151             760     213.463E-03     201.821E-03
             134             760     213.463E-03     201.821E-03
             135             760     213.463E-03     201.821E-03
             136             761     238.409E-03     226.209E-03
             151             761     238.409E-03     226.209E-03
             135             761     238.409E-03     226.209E-03
             152             761     238.409E-03     226.209E-03
             152             762     263.827E-03     251.258E-03
             153             762     263.827E-03     251.258E-03
             136             762     263.827E-03     251.258E-03
             137             762     263.827E-03     251.258E-03
             137             763     289.621E-03     276.567E-03
             154             763     289.621E-03     276.567E-03
             153             763     289.621E-03     276.567E-03
             138             763     289.621E-03     276.567E-03
             139             764     315.117E-03     301.782E-03
             154             764     315.117E-03     301.782E-03
             155             764     315.117E-03     301.782E-03
             138             764     315.117E-03     301.782E-03
             155             765     340.183E-03     326.039E-03
             156             765     340.183E-03     326.039E-03
             139             765     340.183E-03     326.039E-03
             140             765     340.183E-03     326.039E-03
             140             766     362.582E-03     347.838E-03
             141             766     362.582E-03     347.838E-03
             156             766     362.582E-03     347.838E-03
             157             766     362.582E-03     347.838E-03
             141             767     378.710E-03     363.428E-03
             158             767     378.710E-03     363.428E-03
             142             767     378.710E-03     363.428E-03
             157             767     378.710E-03     363.428E-03
             143             768     380.840E-03     365.057E-03
             158             768     380.840E-03     365.057E-03
             159             768     380.840E-03     365.057E-03
             142             768     380.840E-03     365.057E-03
             160             769     356.580E-03     343.423E-03
             143             769     356.580E-03     343.423E-03
             144             769     356.580E-03     343.423E-03
             159             769     356.580E-03     343.423E-03
             145             770     100.518E-03     101.209E-03
             161             770     100.518E-03     101.209E-03
             162             770     100.518E-03     101.209E-03
             146             770     100.518E-03     101.209E-03
             163             771     110.344E-03     113.592E-03
             147             771     110.344E-03     113.592E-03
             146             771     110.344E-03     113.592E-03
             162             771     110.344E-03     113.592E-03
             147             772     129.535E-03     129.063E-03
             148             772     129.535E-03     129.063E-03
             164             772     129.535E-03     129.063E-03
             163             772     129.535E-03     129.063E-03
             149             773     152.055E-03     150.042E-03
             165             773     152.055E-03     150.042E-03
             148             773     152.055E-03     150.042E-03
             164             773     152.055E-03     150.042E-03
             149             774     176.309E-03     173.943E-03
             150             774     176.309E-03     173.943E-03
             166             774     176.309E-03     173.943E-03
             165             774     176.309E-03     173.943E-03
             151             775     201.985E-03     199.419E-03
             166             775     201.985E-03     199.419E-03
             150             775     201.985E-03     199.419E-03
             167             775     201.985E-03     199.419E-03
             151             776     228.537E-03     225.987E-03
             168             776     228.537E-03     225.987E-03
             167             776     228.537E-03     225.987E-03
             152             776     228.537E-03     225.987E-03
             153             777     255.900E-03     253.262E-03
             168             777     255.900E-03     253.262E-03
             169             777     255.900E-03     253.262E-03
             152             777     255.900E-03     253.262E-03
             154             778     283.798E-03     281.184E-03
             170             778     283.798E-03     281.184E-03
             169             778     283.798E-03     281.184E-03
             153             778     283.798E-03     281.184E-03
             154             779     312.376E-03     309.703E-03
             155             779     312.376E-03     309.703E-03
             170             779     312.376E-03     309.703E-03
             171             779     312.376E-03     309.703E-03
             155             780     340.973E-03     338.548E-03
             171             780     340.973E-03     338.548E-03
             156             780     340.973E-03     338.548E-03
             172             780     340.973E-03     338.548E-03
             173             781     369.476E-03     367.225E-03
             157             781     369.476E-03     367.225E-03
             156             781     369.476E-03     367.225E-03
             172             781     369.476E-03     367.225E-03
             174             782     393.840E-03     393.225E-03
             158             782     393.840E-03     393.225E-03
             173             782     393.840E-03     393.225E-03
             157             782     393.840E-03     393.225E-03
             159             783     402.542E-03     407.363E-03
             174             783     402.542E-03     407.363E-03
             175             783     402.542E-03     407.363E-03
             158             783     402.542E-03     407.363E-03
             176             784     406.111E-03     411.197E-03
             175             784     406.111E-03     411.197E-03
             160             784     406.111E-03     411.197E-03
             159             784     406.111E-03     411.197E-03
             178             785     84.8518E-03     80.4690E-03
             162             785     84.8518E-03     80.4690E-03
             177             785     84.8518E-03     80.4690E-03
             161             785     84.8518E-03     80.4690E-03
             178             786     95.9896E-03     99.7448E-03
             162             786     95.9896E-03     99.7448E-03
             179             786     95.9896E-03     99.7448E-03
             163             786     95.9896E-03     99.7448E-03
             179             787     114.278E-03     121.423E-03
             180             787     114.278E-03     121.423E-03
             163             787     114.278E-03     121.423E-03
             164             787     114.278E-03     121.423E-03
             181             788     137.942E-03     145.036E-03
             164             788     137.942E-03     145.036E-03
             180             788     137.942E-03     145.036E-03
             165             788     137.942E-03     145.036E-03
             166             789     163.765E-03     170.980E-03
             182             789     163.765E-03     170.980E-03
             165             789     163.765E-03     170.980E-03
             181             789     163.765E-03     170.980E-03
             182             790     190.705E-03     198.221E-03
             167             790     190.705E-03     198.221E-03
             166             790     190.705E-03     198.221E-03
             183             790     190.705E-03     198.221E-03
             167             791     218.577E-03     226.260E-03
             184             791     218.577E-03     226.260E-03
             168             791     218.577E-03     226.260E-03
             183             791     218.577E-03     226.260E-03
             184             792     247.097E-03     254.952E-03
             185             792     247.097E-03     254.952E-03
             168             792     247.097E-03     254.952E-03
             169             792     247.097E-03     254.952E-03
             169             793     276.216E-03     284.242E-03
             170             793     276.216E-03     284.242E-03
             185             793     276.216E-03     284.242E-03
             186             793     276.216E-03     284.242E-03
             170             794     305.932E-03     314.188E-03
             171             794     305.932E-03     314.188E-03
             186             794     305.932E-03     314.188E-03
             187             794     305.932E-03     314.188E-03
             172             795     336.224E-03     345.114E-03
             187             795     336.224E-03     345.114E-03
             188             795     336.224E-03     345.114E-03
             171             795     336.224E-03     345.114E-03
             189             796     366.801E-03     376.743E-03
             188             796     366.801E-03     376.743E-03
             173             796     366.801E-03     376.743E-03
             172             796     366.801E-03     376.743E-03
             190             797     398.626E-03     409.651E-03
             173             797     398.626E-03     409.651E-03
             189             797     398.626E-03     409.651E-03
             174             797     398.626E-03     409.651E-03
             175             798     428.036E-03     439.982E-03
             190             798     428.036E-03     439.982E-03
             174             798     428.036E-03     439.982E-03
             191             798     428.036E-03     439.982E-03
             176             799     457.266E-03     469.208E-03
             175             799     457.266E-03     469.208E-03
             192             799     457.266E-03     469.208E-03
             191             799     457.266E-03     469.208E-03
             193             800     66.9806E-03     66.9955E-03
             194             800     66.9806E-03     66.9955E-03
             177             800     66.9806E-03     66.9955E-03
             178             800     66.9806E-03     66.9955E-03
             179             801     79.3133E-03     89.2484E-03
             194             801     79.3133E-03     89.2484E-03
             195             801     79.3133E-03     89.2484E-03
             178             801     79.3133E-03     89.2484E-03
             196             802     99.7121E-03     115.203E-03
             195             802     99.7121E-03     115.203E-03
             179             802     99.7121E-03     115.203E-03
             180             802     99.7121E-03     115.203E-03
             180             803     124.523E-03     141.731E-03
             197             803     124.523E-03     141.731E-03
             181             803     124.523E-03     141.731E-03
             196             803     124.523E-03     141.731E-03
             197             804     151.442E-03     169.326E-03
             198             804     151.442E-03     169.326E-03
             181             804     151.442E-03     169.326E-03
             182             804     151.442E-03     169.326E-03
             198             805     179.411E-03     197.681E-03
             182             805     179.411E-03     197.681E-03
             183             805     179.411E-03     197.681E-03
             199             805     179.411E-03     197.681E-03
             199             806     207.997E-03     226.519E-03
             183             806     207.997E-03     226.519E-03
             200             806     207.997E-03     226.519E-03
             184             806     207.997E-03     226.519E-03
             200             807     236.976E-03     255.673E-03
             184             807     236.976E-03     255.673E-03
             201             807     236.976E-03     255.673E-03
             185             807     236.976E-03     255.673E-03
             201             808     266.356E-03     285.139E-03
             202             808     266.356E-03     285.139E-03
             185             808     266.356E-03     285.139E-03
             186             808     266.356E-03     285.139E-03
             203             809     295.862E-03     314.943E-03
             186             809     295.862E-03     314.943E-03
             202             809     295.862E-03     314.943E-03
             187             809     295.862E-03     314.943E-03
             203             810     326.054E-03     345.412E-03
             204             810     326.054E-03     345.412E-03
             188             810     326.054E-03     345.412E-03
             187             810     326.054E-03     345.412E-03
             188             811     357.055E-03     377.453E-03
             205             811     357.055E-03     377.453E-03
             204             811     357.055E-03     377.453E-03
             189             811     357.055E-03     377.453E-03
             205             812     391.428E-03     412.457E-03
             206             812     391.428E-03     412.457E-03
             190             812     391.428E-03     412.457E-03
             189             812     391.428E-03     412.457E-03
             191             813     443.094E-03     459.549E-03
             206             813     443.094E-03     459.549E-03
             207             813     443.094E-03     459.549E-03
             190             813     443.094E-03     459.549E-03
             191             814     506.450E-03     512.814E-03
             207             814     506.450E-03     512.814E-03
             208             814     506.450E-03     512.814E-03
             192             814     506.450E-03     512.814E-03
             193             815     46.2523E-03     57.5849E-03
             210             815     46.2523E-03     57.5849E-03
             194             815     46.2523E-03     57.5849E-03
             209             815     46.2523E-03     57.5849E-03
             194             816     61.7360E-03     83.9097E-03
             195             816     61.7360E-03     83.9097E-03
             210             816     61.7360E-03     83.9097E-03
             211             816     61.7360E-03     83.9097E-03
             212             817     85.3469E-03     111.545E-03
             195             817     85.3469E-03     111.545E-03
             196             817     85.3469E-03     111.545E-03
             211             817     85.3469E-03     111.545E-03
             197             818     111.669E-03     140.260E-03
             212             818     111.669E-03     140.260E-03
             213             818     111.669E-03     140.260E-03
             196             818     111.669E-03     140.260E-03
             198             819     139.528E-03     168.905E-03
             197             819     139.528E-03     168.905E-03
             213             819     139.528E-03     168.905E-03
             214             819     139.528E-03     168.905E-03
             199             820     168.103E-03     197.771E-03
             214             820     168.103E-03     197.771E-03
             198             820     168.103E-03     197.771E-03
             215             820     168.103E-03     197.771E-03
             199             821     196.899E-03     226.700E-03
             200             821     196.899E-03     226.700E-03
             215             821     196.899E-03     226.700E-03
             216             821     196.899E-03     226.700E-03
             216             822     225.864E-03     255.690E-03
             217             822     225.864E-03     255.690E-03
             201             822     225.864E-03     255.690E-03
             200             822     225.864E-03     255.690E-03
             217             823     254.695E-03     284.523E-03
             202             823     254.695E-03     284.523E-03
             201             823     254.695E-03     284.523E-03
             218             823     254.695E-03     284.523E-03
             202             824     283.707E-03     313.396E-03
             219             824     283.707E-03     313.396E-03
             218             824     283.707E-03     313.396E-03
             203             824     283.707E-03     313.396E-03
             220             825     312.763E-03     342.303E-03
             204             825     312.763E-03     342.303E-03
             219             825     312.763E-03     342.303E-03
             203             825     312.763E-03     342.303E-03
             220             826     343.922E-03     372.961E-03
             221             826     343.922E-03     372.961E-03
             205             826     343.922E-03     372.961E-03
             204             826     343.922E-03     372.961E-03
             221             827     379.335E-03     407.819E-03
             206             827     379.335E-03     407.819E-03
             222             827     379.335E-03     407.819E-03
             205             827     379.335E-03     407.819E-03
             222             828     431.836E-03     459.565E-03
             223             828     431.836E-03     459.565E-03
             206             828     431.836E-03     459.565E-03
             207             828     431.836E-03     459.565E-03
             223             829     527.350E-03     548.823E-03
             224             829     527.350E-03     548.823E-03
             208             829     527.350E-03     548.823E-03
             207             829     527.350E-03     548.823E-03
             226             830     96.9308E-03     114.878E-03
             209             830     96.9308E-03     114.878E-03
             225             830     96.9308E-03     114.878E-03
             210             830     96.9308E-03     114.878E-03
             227             831     120.721E-03     132.881E-03
             210             831     120.721E-03     132.881E-03
             226             831     120.721E-03     132.881E-03
             211             831     120.721E-03     132.881E-03
             228             832     147.133E-03     159.602E-03
             212             832     147.133E-03     159.602E-03
             211             832     147.133E-03     159.602E-03
             227             832     147.133E-03     159.602E-03
             228             833     177.055E-03     190.061E-03
             229             833     177.055E-03     190.061E-03
             212             833     177.055E-03     190.061E-03
             213             833     177.055E-03     190.061E-03
             229             834     209.200E-03     222.175E-03
             213             834     209.200E-03     222.175E-03
             214             834     209.200E-03     222.175E-03
             230             834     209.200E-03     222.175E-03
             215             835     242.426E-03     255.256E-03
             214             835     242.426E-03     255.256E-03
             230             835     242.426E-03     255.256E-03
             231             835     242.426E-03     255.256E-03
             216             836     276.381E-03     288.874E-03
             231             836     276.381E-03     288.874E-03
             232             836     276.381E-03     288.874E-03
             215             836     276.381E-03     288.874E-03
             232             837     310.315E-03     322.545E-03
             233             837     310.315E-03     322.545E-03
             217             837     310.315E-03     322.545E-03
             216             837     310.315E-03     322.545E-03
             233             838     344.154E-03     355.857E-03
             234             838     344.154E-03     355.857E-03
             217             838     344.154E-03     355.857E-03
             218             838     344.154E-03     355.857E-03
             235             839     377.238E-03     388.405E-03
             234             839     377.238E-03     388.405E-03
             218             839     377.238E-03     388.405E-03
             219             839     377.238E-03     388.405E-03
             220             840     409.578E-03     419.291E-03
             235             840     409.578E-03     419.291E-03
             236             840     409.578E-03     419.291E-03
             219             840     409.578E-03     419.291E-03
             236             841     440.651E-03     448.599E-03
             237             841     440.651E-03     448.599E-03
             220             841     440.651E-03     448.599E-03
             221             841     440.651E-03     448.599E-03
             222             842     471.440E-03     476.387E-03
             237             842     471.440E-03     476.387E-03
             238             842     471.440E-03     476.387E-03
             221             842     471.440E-03     476.387E-03
             222             843     502.054E-03     504.791E-03
             223             843     502.054E-03     504.791E-03
             238             843     502.054E-03     504.791E-03
             239             843     502.054E-03     504.791E-03
             240             844     544.036E-03     553.788E-03
             224             844     544.036E-03     553.788E-03
             223             844     544.036E-03     553.788E-03
             239             844     544.036E-03     553.788E-03
             242             845     149.365E-03     165.742E-03
             241             845     149.365E-03     165.742E-03
             225             845     149.365E-03     165.742E-03
             226             845     149.365E-03     165.742E-03
             227             846     173.496E-03     176.135E-03
             242             846     173.496E-03     176.135E-03
             226             846     173.496E-03     176.135E-03
             243             846     173.496E-03     176.135E-03
             227             847     204.746E-03     201.029E-03
             243             847     204.746E-03     201.029E-03
             244             847     204.746E-03     201.029E-03
             228             847     204.746E-03     201.029E-03
             228             848     239.737E-03     234.224E-03
             229             848     239.737E-03     234.224E-03
             244             848     239.737E-03     234.224E-03
             245             848     239.737E-03     234.224E-03
             230             849     277.361E-03     271.198E-03
             229             849     277.361E-03     271.198E-03
             245             849     277.361E-03     271.198E-03
             246             849     277.361E-03     271.198E-03
             247             850     316.974E-03     310.340E-03
             230             850     316.974E-03     310.340E-03
             231             850     316.974E-03     310.340E-03
             246             850     316.974E-03     310.340E-03
             232             851     357.573E-03     350.658E-03
             248             851     357.573E-03     350.658E-03
             231             851     357.573E-03     350.658E-03
             247             851     357.573E-03     350.658E-03
             249             852     398.843E-03     391.468E-03
             248             852     398.843E-03     391.468E-03
             232             852     398.843E-03     391.468E-03
             233             852     398.843E-03     391.468E-03
             250             853     440.040E-03     432.306E-03
             233             853     440.040E-03     432.306E-03
             249             853     440.040E-03     432.306E-03
             234             853     440.040E-03     432.306E-03
             250             854     480.880E-03     472.264E-03
             235             854     480.880E-03     472.264E-03
             251             854     480.880E-03     472.264E-03
             234             854     480.880E-03     472.264E-03
             235             855     520.099E-03     510.603E-03
             251             855     520.099E-03     510.603E-03
             252             855     520.099E-03     510.603E-03
             236             855     520.099E-03     510.603E-03
             237             856     555.719E-03     544.926E-03
             236             856     555.719E-03     544.926E-03
             252             856     555.719E-03     544.926E-03
             253             856     555.719E-03     544.926E-03
             253             857     585.023E-03     572.520E-03
             237             857     585.023E-03     572.520E-03
             254             857     585.023E-03     572.520E-03
             238             857     585.023E-03     572.520E-03
             238             858     599.878E-03     587.940E-03
             255             858     599.878E-03     587.940E-03
             254             858     599.878E-03     587.940E-03
             239             858     599.878E-03     587.940E-03
             239             859     593.723E-03     580.859E-03
             256             859     593.723E-03     580.859E-03
             240             859     593.723E-03     580.859E-03
             255             859     593.723E-03     580.859E-03
             241             860     128.613E-03     137.042E-03
             242             860     128.613E-03     137.042E-03
             257             860     128.613E-03     137.042E-03
             258             860     128.613E-03     137.042E-03
             258             861     148.895E-03     159.264E-03
             259             861     148.895E-03     159.264E-03
             242             861     148.895E-03     159.264E-03
             243             861     148.895E-03     159.264E-03
             244             862     183.531E-03     187.506E-03
             260             862     183.531E-03     187.506E-03
             243             862     183.531E-03     187.506E-03
             259             862     183.531E-03     187.506E-03
             260             863     222.591E-03     223.963E-03
             261             863     222.591E-03     223.963E-03
             244             863     222.591E-03     223.963E-03
             245             863     222.591E-03     223.963E-03
             262             864     263.744E-03     264.373E-03
             245             864     263.744E-03     264.373E-03
             261             864     263.744E-03     264.373E-03
             246             864     263.744E-03     264.373E-03
             246             865     306.442E-03     306.895E-03
             262             865     306.442E-03     306.895E-03
             247             865     306.442E-03     306.895E-03
             263             865     306.442E-03     306.895E-03
             264             866     350.214E-03     350.676E-03
             263             866     350.214E-03     350.676E-03
             248             866     350.214E-03     350.676E-03
             247             866     350.214E-03     350.676E-03
             265             867     394.762E-03     395.284E-03
             264             867     394.762E-03     395.284E-03
             249             867     394.762E-03     395.284E-03
             248             867     394.762E-03     395.284E-03
             249             868     440.015E-03     440.498E-03
             266             868     440.015E-03     440.498E-03
             265             868     440.015E-03     440.498E-03
             250             868     440.015E-03     440.498E-03
             251             869     485.382E-03     486.110E-03
             250             869     485.382E-03     486.110E-03
             266             869     485.382E-03     486.110E-03
             267             869     485.382E-03     486.110E-03
             268             870     530.745E-03     531.608E-03
             267             870     530.745E-03     531.608E-03
             251             870     530.745E-03     531.608E-03
             252             870     530.745E-03     531.608E-03
             269             871     573.797E-03     575.806E-03
             253             871     573.797E-03     575.806E-03
             268             871     573.797E-03     575.806E-03
             252             871     573.797E-03     575.806E-03
             253             872     610.499E-03     615.297E-03
             254             872     610.499E-03     615.297E-03
             270             872     610.499E-03     615.297E-03
             269             872     610.499E-03     615.297E-03
             271             873     634.301E-03     642.444E-03
             255             873     634.301E-03     642.444E-03
             270             873     634.301E-03     642.444E-03
             254             873     634.301E-03     642.444E-03
             271             874     649.321E-03     658.582E-03
             255             874     649.321E-03     658.582E-03
             272             874     649.321E-03     658.582E-03
             256             874     649.321E-03     658.582E-03
             273             875     105.300E-03     107.255E-03
             258             875     105.300E-03     107.255E-03
             274             875     105.300E-03     107.255E-03
             257             875     105.300E-03     107.255E-03
             258             876     129.496E-03     139.896E-03
             259             876     129.496E-03     139.896E-03
             275             876     129.496E-03     139.896E-03
             274             876     129.496E-03     139.896E-03
             275             877     165.352E-03     176.352E-03
             260             877     165.352E-03     176.352E-03
             259             877     165.352E-03     176.352E-03
             276             877     165.352E-03     176.352E-03
             276             878     207.443E-03     216.281E-03
             260             878     207.443E-03     216.281E-03
             261             878     207.443E-03     216.281E-03
             277             878     207.443E-03     216.281E-03
             262             879     251.393E-03     259.708E-03
             261             879     251.393E-03     259.708E-03
             278             879     251.393E-03     259.708E-03
             277             879     251.393E-03     259.708E-03
             263             880     296.454E-03     304.733E-03
             279             880     296.454E-03     304.733E-03
             262             880     296.454E-03     304.733E-03
             278             880     296.454E-03     304.733E-03
             263             881     342.438E-03     350.871E-03
             280             881     342.438E-03     350.871E-03
             279             881     342.438E-03     350.871E-03
             264             881     342.438E-03     350.871E-03
             280             882     389.162E-03     397.874E-03
             281             882     389.162E-03     397.874E-03
             264             882     389.162E-03     397.874E-03
             265             882     389.162E-03     397.874E-03
             265             883     436.555E-03     445.686E-03
             282             883     436.555E-03     445.686E-03
             266             883     436.555E-03     445.686E-03
             281             883     436.555E-03     445.686E-03
             266             884     484.737E-03     494.537E-03
             282             884     484.737E-03     494.537E-03
             267             884     484.737E-03     494.537E-03
             283             884     484.737E-03     494.537E-03
             267             885     533.024E-03     544.165E-03
             268             885     533.024E-03     544.165E-03
             283             885     533.024E-03     544.165E-03
             284             885     533.024E-03     544.165E-03
             268             886     582.062E-03     594.790E-03
             285             886     582.062E-03     594.790E-03
             269             886     582.062E-03     594.790E-03
             284             886     582.062E-03     594.790E-03
             286             887     627.912E-03     643.616E-03
             270             887     627.912E-03     643.616E-03
             269             887     627.912E-03     643.616E-03
             285             887     627.912E-03     643.616E-03
             286             888     666.402E-03     685.127E-03
             287             888     666.402E-03     685.127E-03
             271             888     666.402E-03     685.127E-03
             270             888     666.402E-03     685.127E-03
             287             889     705.418E-03     718.131E-03
             288             889     705.418E-03     718.131E-03
             271             889     705.418E-03     718.131E-03
             272             889     705.418E-03     718.131E-03
             289             890     81.4207E-03     86.7664E-03
             290             890     81.4207E-03     86.7664E-03
             273             890     81.4207E-03     86.7664E-03
             274             890     81.4207E-03     86.7664E-03
             291             891     110.540E-03     123.735E-03
             275             891     110.540E-03     123.735E-03
             274             891     110.540E-03     123.735E-03
             290             891     110.540E-03     123.735E-03
             291             892     150.258E-03     166.563E-03
             275             892     150.258E-03     166.563E-03
             292             892     150.258E-03     166.563E-03
             276             892     150.258E-03     166.563E-03
             292             893     194.067E-03     210.720E-03
             277             893     194.067E-03     210.720E-03
             293             893     194.067E-03     210.720E-03
             276             893     194.067E-03     210.720E-03
             293             894     239.785E-03     256.246E-03
             277             894     239.785E-03     256.246E-03
             294             894     239.785E-03     256.246E-03
             278             894     239.785E-03     256.246E-03
             279             895     286.290E-03     302.855E-03
             294             895     286.290E-03     302.855E-03
             278             895     286.290E-03     302.855E-03
             295             895     286.290E-03     302.855E-03
             280             896     333.318E-03     350.096E-03
             279             896     333.318E-03     350.096E-03
             295             896     333.318E-03     350.096E-03
             296             896     333.318E-03     350.096E-03
             281             897     380.891E-03     397.931E-03
             280             897     380.891E-03     397.931E-03
             296             897     380.891E-03     397.931E-03
             297             897     380.891E-03     397.931E-03
             282             898     428.920E-03     446.479E-03
             297             898     428.920E-03     446.479E-03
             281             898     428.920E-03     446.479E-03
             298             898     428.920E-03     446.479E-03
             282             899     477.573E-03     495.843E-03
             283             899     477.573E-03     495.843E-03
             298             899     477.573E-03     495.843E-03
             299             899     477.573E-03     495.843E-03
             283             900     527.276E-03     546.916E-03
             299             900     527.276E-03     546.916E-03
             284             900     527.276E-03     546.916E-03
             300             900     527.276E-03     546.916E-03
             284             901     578.114E-03     599.571E-03
             285             901     578.114E-03     599.571E-03
             301             901     578.114E-03     599.571E-03
             300             901     578.114E-03     599.571E-03
             286             902     634.810E-03     656.309E-03
             302             902     634.810E-03     656.309E-03
             285             902     634.810E-03     656.309E-03
             301             902     634.810E-03     656.309E-03
             287             903     695.385E-03     714.951E-03
             302             903     695.385E-03     714.951E-03
             303             903     695.385E-03     714.951E-03
             286             903     695.385E-03     714.951E-03
             287             904     752.321E-03     770.449E-03
             288             904     752.321E-03     770.449E-03
             304             904     752.321E-03     770.449E-03
             303             904     752.321E-03     770.449E-03
             305             905     58.7795E-03     70.0515E-03
             290             905     58.7795E-03     70.0515E-03
             306             905     58.7795E-03     70.0515E-03
             289             905     58.7795E-03     70.0515E-03
             306             906     94.1658E-03     113.908E-03
             307             906     94.1658E-03     113.908E-03
             290             906     94.1658E-03     113.908E-03
             291             906     94.1658E-03     113.908E-03
             292             907     137.178E-03     160.005E-03
             291             907     137.178E-03     160.005E-03
             308             907     137.178E-03     160.005E-03
             307             907     137.178E-03     160.005E-03
             308             908     182.439E-03     207.085E-03
             309             908     182.439E-03     207.085E-03
             293             908     182.439E-03     207.085E-03
             292             908     182.439E-03     207.085E-03
             294             909     228.890E-03     253.922E-03
             310             909     228.890E-03     253.922E-03
             309             909     228.890E-03     253.922E-03
             293             909     228.890E-03     253.922E-03
             311             910     275.777E-03     301.004E-03
             295             910     275.777E-03     301.004E-03
             294             910     275.777E-03     301.004E-03
             310             910     275.777E-03     301.004E-03
             296             911     322.912E-03     348.270E-03
             312             911     322.912E-03     348.270E-03
             311             911     322.912E-03     348.270E-03
             295             911     322.912E-03     348.270E-03
             296             912     370.152E-03     395.643E-03
             312             912     370.152E-03     395.643E-03
             313             912     370.152E-03     395.643E-03
             297             912     370.152E-03     395.643E-03
             297             913     417.668E-03     443.255E-03
             314             913     417.668E-03     443.255E-03
             298             913     417.668E-03     443.255E-03
             313             913     417.668E-03     443.255E-03
             314             914     465.409E-03     491.436E-03
             298             914     465.409E-03     491.436E-03
             299             914     465.409E-03     491.436E-03
             315             914     465.409E-03     491.436E-03
             299             915     514.409E-03     540.814E-03
             315             915     514.409E-03     540.814E-03
             316             915     514.409E-03     540.814E-03
             300             915     514.409E-03     540.814E-03
             316             916     565.961E-03     593.294E-03
             317             916     565.961E-03     593.294E-03
             301             916     565.961E-03     593.294E-03
             300             916     565.961E-03     593.294E-03
             302             917     624.438E-03     651.740E-03
             301             917     624.438E-03     651.740E-03
             317             917     624.438E-03     651.740E-03
             318             917     624.438E-03     651.740E-03
             302             918     705.420E-03     726.625E-03
             318             918     705.420E-03     726.625E-03
             303             918     705.420E-03     726.625E-03
             319             918     705.420E-03     726.625E-03
             320             919     797.327E-03     807.158E-03
             303             919     797.327E-03     807.158E-03
             319             919     797.327E-03     807.158E-03
             304             919     797.327E-03     807.158E-03
             306             920     41.6387E-03     61.9754E-03
             322             920     41.6387E-03     61.9754E-03
             305             920     41.6387E-03     61.9754E-03
             321             920     41.6387E-03     61.9754E-03
             307             921     82.7432E-03     110.163E-03
             323             921     82.7432E-03     110.163E-03
             322             921     82.7432E-03     110.163E-03
             306             921     82.7432E-03     110.163E-03
             324             922     127.026E-03     158.672E-03
             323             922     127.026E-03     158.672E-03
             307             922     127.026E-03     158.672E-03
             308             922     127.026E-03     158.672E-03
             308             923     172.926E-03     206.110E-03
             325             923     172.926E-03     206.110E-03
             309             923     172.926E-03     206.110E-03
             324             923     172.926E-03     206.110E-03
             310             924     219.131E-03     253.197E-03
             325             924     219.131E-03     253.197E-03
             326             924     219.131E-03     253.197E-03
             309             924     219.131E-03     253.197E-03
             326             925     265.553E-03     299.799E-03
             311             925     265.553E-03     299.799E-03
             310             925     265.553E-03     299.799E-03
             327             925     265.553E-03     299.799E-03
             311             926     311.910E-03     346.105E-03
             327             926     311.910E-03     346.105E-03
             328             926     311.910E-03     346.105E-03
             312             926     311.910E-03     346.105E-03
             312             927     358.137E-03     392.166E-03
             328             927     358.137E-03     392.166E-03
             329             927     358.137E-03     392.166E-03
             313             927     358.137E-03     392.166E-03
             329             928     404.177E-03     437.913E-03
             330             928     404.177E-03     437.913E-03
             313             928     404.177E-03     437.913E-03
             314             928     404.177E-03     437.913E-03
             314             929     450.609E-03     483.778E-03
             330             929     450.609E-03     483.778E-03
             315             929     450.609E-03     483.778E-03
             331             929     450.609E-03     483.778E-03
             316             930     497.710E-03     530.142E-03
             315             930     497.710E-03     530.142E-03
             331             930     497.710E-03     530.142E-03
             332             930     497.710E-03     530.142E-03
             332             931     548.587E-03     579.746E-03
             316             931     548.587E-03     579.746E-03
             333             931     548.587E-03     579.746E-03
             317             931     548.587E-03     579.746E-03
             317             932     605.602E-03     635.590E-03
             333             932     605.602E-03     635.590E-03
             334             932     605.602E-03     635.590E-03
             318             932     605.602E-03     635.590E-03
             318             933     683.209E-03     712.749E-03
             334             933     683.209E-03     712.749E-03
             335             933     683.209E-03     712.749E-03
             319             933     683.209E-03     712.749E-03
             319             934     808.583E-03     830.998E-03
             335             934     808.583E-03     830.998E-03
             320             934     808.583E-03     830.998E-03
             336             934     808.583E-03     830.998E-03
             338             935     114.906E-03     137.189E-03
             337             935     114.906E-03     137.189E-03
             321             935     114.906E-03     137.189E-03
             322             935     114.906E-03     137.189E-03
             338             936     156.495E-03     171.504E-03
             339             936     156.495E-03     171.504E-03
             323             936     156.495E-03     171.504E-03
             322             936     156.495E-03     171.504E-03
             324             937     199.853E-03     215.353E-03
             340             937     199.853E-03     215.353E-03
             339             937     199.853E-03     215.353E-03
             323             937     199.853E-03     215.353E-03
             340             938     246.749E-03     263.359E-03
             324             938     246.749E-03     263.359E-03
             325             938     246.749E-03     263.359E-03
             341             938     246.749E-03     263.359E-03
             325             939     296.047E-03     312.948E-03
             326             939     296.047E-03     312.948E-03
             341             939     296.047E-03     312.948E-03
             342             939     296.047E-03     312.948E-03
             342             940     346.540E-03     363.404E-03
             343             940     346.540E-03     363.404E-03
             326             940     346.540E-03     363.404E-03
             327             940     346.540E-03     363.404E-03
             343             941     397.635E-03     414.187E-03
             328             941     397.635E-03     414.187E-03
             327             941     397.635E-03     414.187E-03
             344             941     397.635E-03     414.187E-03
             329             942     448.637E-03     464.814E-03
             345             942     448.637E-03     464.814E-03
             344             942     448.637E-03     464.814E-03
             328             942     448.637E-03     464.814E-03
             346             943     499.510E-03     514.841E-03
             329             943     499.510E-03     514.841E-03
             330             943     499.510E-03     514.841E-03
             345             943     499.510E-03     514.841E-03
             347             944     549.588E-03     563.977E-03
             330             944     549.588E-03     563.977E-03
             346             944     549.588E-03     563.977E-03
             331             944     549.588E-03     563.977E-03
             332             945     599.415E-03     611.453E-03
             347             945     599.415E-03     611.453E-03
             331             945     599.415E-03     611.453E-03
             348             945     599.415E-03     611.453E-03
             333             946     648.258E-03     657.666E-03
             348             946     648.258E-03     657.666E-03
             332             946     648.258E-03     657.666E-03
             349             946     648.258E-03     657.666E-03
             334             947     698.157E-03     703.454E-03
             350             947     698.157E-03     703.454E-03
             349             947     698.157E-03     703.454E-03
             333             947     698.157E-03     703.454E-03
             351             948     748.681E-03     751.383E-03
             350             948     748.681E-03     751.383E-03
             335             948     748.681E-03     751.383E-03
             334             948     748.681E-03     751.383E-03
             352             949     815.039E-03     828.569E-03
             335             949     815.039E-03     828.569E-03
             351             949     815.039E-03     828.569E-03
             336             949     815.039E-03     828.569E-03
             337             950     179.632E-03     201.567E-03
             353             950     179.632E-03     201.567E-03
             338             950     179.632E-03     201.567E-03
             354             950     179.632E-03     201.567E-03
             339             951     215.773E-03     221.765E-03
             338             951     215.773E-03     221.765E-03
             354             951     215.773E-03     221.765E-03
             355             951     215.773E-03     221.765E-03
             339             952     262.224E-03     262.060E-03
             340             952     262.224E-03     262.060E-03
             356             952     262.224E-03     262.060E-03
             355             952     262.224E-03     262.060E-03
             340             953     313.988E-03     312.616E-03
             357             953     313.988E-03     312.616E-03
             341             953     313.988E-03     312.616E-03
             356             953     313.988E-03     312.616E-03
             341             954     369.076E-03     367.530E-03
             358             954     369.076E-03     367.530E-03
             357             954     369.076E-03     367.530E-03
             342             954     369.076E-03     367.530E-03
             359             955     426.538E-03     424.750E-03
             358             955     426.538E-03     424.750E-03
             342             955     426.538E-03     424.750E-03
             343             955     426.538E-03     424.750E-03
             344             956     485.084E-03     483.162E-03
             343             956     485.084E-03     483.162E-03
             360             956     485.084E-03     483.162E-03
             359             956     485.084E-03     483.162E-03
             360             957     544.334E-03     541.981E-03
             344             957     544.334E-03     541.981E-03
             361             957     544.334E-03     541.981E-03
             345             957     544.334E-03     541.981E-03
             362             958     603.433E-03     600.710E-03
             345             958     603.433E-03     600.710E-03
             346             958     603.433E-03     600.710E-03
             361             958     603.433E-03     600.710E-03
             347             959     662.184E-03     658.391E-03
             363             959     662.184E-03     658.391E-03
             362             959     662.184E-03     658.391E-03
             346             959     662.184E-03     658.391E-03
             347             960     719.230E-03     714.306E-03
             363             960     719.230E-03     714.306E-03
             348             960     719.230E-03     714.306E-03
             364             960     719.230E-03     714.306E-03
             348             961     772.829E-03     766.185E-03
             364             961     772.829E-03     766.185E-03
             349             961     772.829E-03     766.185E-03
             365             961     772.829E-03     766.185E-03
             365             962     820.290E-03     811.438E-03
             349             962     820.290E-03     811.438E-03
             366             962     820.290E-03     811.438E-03
             350             962     820.290E-03     811.438E-03
             350             963     854.649E-03     846.351E-03
             351             963     854.649E-03     846.351E-03
             367             963     854.649E-03     846.351E-03
             366             963     854.649E-03     846.351E-03
             367             964     871.089E-03     860.005E-03
             368             964     871.089E-03     860.005E-03
             352             964     871.089E-03     860.005E-03
             351             964     871.089E-03     860.005E-03
             353             965     149.399E-03     164.677E-03
             369             965     149.399E-03     164.677E-03
             370             965     149.399E-03     164.677E-03
             354             965     149.399E-03     164.677E-03
             370             966     183.194E-03     200.220E-03
             355             966     183.194E-03     200.220E-03
             354             966     183.194E-03     200.220E-03
             371             966     183.194E-03     200.220E-03
             356             967     236.031E-03     244.986E-03
             355             967     236.031E-03     244.986E-03
             371             967     236.031E-03     244.986E-03
             372             967     236.031E-03     244.986E-03
             356             968     293.737E-03     300.011E-03
             373             968     293.737E-03     300.011E-03
             372             968     293.737E-03     300.011E-03
             357             968     293.737E-03     300.011E-03
             373             969     353.765E-03     359.272E-03
             357             969     353.765E-03     359.272E-03
             358             969     353.765E-03     359.272E-03
             374             969     353.765E-03     359.272E-03
             358             970     415.360E-03     420.795E-03
             359             970     415.360E-03     420.795E-03
             375             970     415.360E-03     420.795E-03
             374             970     415.360E-03     420.795E-03
             375             971     478.036E-03     483.573E-03
             359             971     478.036E-03     483.573E-03
             376             971     478.036E-03     483.573E-03
             360             971     478.036E-03     483.573E-03
             361             972     541.493E-03     547.176E-03
             376             972     541.493E-03     547.176E-03
             377             972     541.493E-03     547.176E-03
             360             972     541.493E-03     547.176E-03
             361             973     605.716E-03     611.406E-03
             377             973     605.716E-03     611.406E-03
             362             973     605.716E-03     611.406E-03
             378             973     605.716E-03     611.406E-03
             362             974     670.070E-03     676.171E-03
             363             974     670.070E-03     676.171E-03
             379             974     670.070E-03     676.171E-03
             378             974     670.070E-03     676.171E-03
             379             975     734.652E-03     741.021E-03
             363             975     734.652E-03     741.021E-03
             380             975     734.652E-03     741.021E-03
             364             975     734.652E-03     741.021E-03
             365             976     797.239E-03     805.149E-03
             364             976     797.239E-03     805.149E-03
             380             976     797.239E-03     805.149E-03
             381             976     797.239E-03     805.149E-03
             382             977     853.891E-03     865.178E-03
             365             977     853.891E-03     865.178E-03
             366             977     853.891E-03     865.178E-03
             381             977     853.891E-03     865.178E-03
             383             978     900.005E-03     914.076E-03
             367             978     900.005E-03     914.076E-03
             366             978     900.005E-03     914.076E-03
             382             978     900.005E-03     914.076E-03
             367             979     935.052E-03     948.500E-03
             368             979     935.052E-03     948.500E-03
             383             979     935.052E-03     948.500E-03
             384             979     935.052E-03     948.500E-03
             370             980     117.700E-03     126.539E-03
             369             980     117.700E-03     126.539E-03
             386             980     117.700E-03     126.539E-03
             385             980     117.700E-03     126.539E-03
             387             981     158.464E-03     177.213E-03
             371             981     158.464E-03     177.213E-03
             386             981     158.464E-03     177.213E-03
             370             981     158.464E-03     177.213E-03
             387             982     214.414E-03     232.190E-03
             372             982     214.414E-03     232.190E-03
             371             982     214.414E-03     232.190E-03
             388             982     214.414E-03     232.190E-03
             372             983     276.813E-03     291.125E-03
             388             983     276.813E-03     291.125E-03
             389             983     276.813E-03     291.125E-03
             373             983     276.813E-03     291.125E-03
             389             984     340.518E-03     354.018E-03
             374             984     340.518E-03     354.018E-03
             390             984     340.518E-03     354.018E-03
             373             984     340.518E-03     354.018E-03
             374             985     405.104E-03     418.515E-03
             390             985     405.104E-03     418.515E-03
             391             985     405.104E-03     418.515E-03
             375             985     405.104E-03     418.515E-03
             391             986     470.528E-03     484.131E-03
             392             986     470.528E-03     484.131E-03
             375             986     470.528E-03     484.131E-03
             376             986     470.528E-03     484.131E-03
             392             987     536.683E-03     550.654E-03
             393             987     536.683E-03     550.654E-03
             377             987     536.683E-03     550.654E-03
             376             987     536.683E-03     550.654E-03
             378             988     603.550E-03     618.116E-03
             393             988     603.550E-03     618.116E-03
             394             988     603.550E-03     618.116E-03
             377             988     603.550E-03     618.116E-03
             394             989     671.361E-03     686.867E-03
             378             989     671.361E-03     686.867E-03
             395             989     671.361E-03     686.867E-03
             379             989     671.361E-03     686.867E-03
             395             990     739.531E-03     756.905E-03
             396             990     739.531E-03     756.905E-03
             380             990     739.531E-03     756.905E-03
             379             990     739.531E-03     756.905E-03
             380             991     809.024E-03     828.648E-03
             396             991     809.024E-03     828.648E-03
             381             991     809.024E-03     828.648E-03
             397             991     809.024E-03     828.648E-03
             382             992     876.621E-03     899.654E-03
             381             992     876.621E-03     899.654E-03
             397             992     876.621E-03     899.654E-03
             398             992     876.621E-03     899.654E-03
             383             993     936.639E-03     962.860E-03
             382             993     936.639E-03     962.860E-03
             399             993     936.639E-03     962.860E-03
             398             993     936.639E-03     962.860E-03
             384             994     993.328E-03         1.01242
             400             994     993.328E-03         1.01242
             399             994     993.328E-03         1.01242
             383             994     993.328E-03         1.01242
             401             995     87.0107E-03     102.201E-03
             386             995     87.0107E-03     102.201E-03
             385             995     87.0107E-03     102.201E-03
             402             995     87.0107E-03     102.201E-03
             386             996     136.734E-03     159.537E-03
             403             996     136.734E-03     159.537E-03
             402             996     136.734E-03     159.537E-03
             387             996     136.734E-03     159.537E-03
             388             997     198.379E-03     221.863E-03
             387             997     198.379E-03     221.863E-03
             404             997     198.379E-03     221.863E-03
             403             997     198.379E-03     221.863E-03
             388             998     262.977E-03     285.395E-03
             404             998     262.977E-03     285.395E-03
             405             998     262.977E-03     285.395E-03
             389             998     262.977E-03     285.395E-03
             390             999     328.674E-03     350.494E-03
             406             999     328.674E-03     350.494E-03
             389             999     328.674E-03     350.494E-03
             405             999     328.674E-03     350.494E-03
             406            1000     394.813E-03     416.618E-03
             391            1000     394.813E-03     416.618E-03
             390            1000     394.813E-03     416.618E-03
             407            1000     394.813E-03     416.618E-03
             408            1001     461.333E-03     483.354E-03
             392            1001     461.333E-03     483.354E-03
             407            1001     461.333E-03     483.354E-03
             391            1001     461.333E-03     483.354E-03
             408            1002     528.368E-03     550.714E-03
             392            1002     528.368E-03     550.714E-03
             393            1002     528.368E-03     550.714E-03
             409            1002     528.368E-03     550.714E-03
             394            1003     595.888E-03     618.912E-03
             393            1003     595.888E-03     618.912E-03
             409            1003     595.888E-03     618.912E-03
             410            1003     595.888E-03     618.912E-03
             395            1004     664.179E-03     688.176E-03
             410            1004     664.179E-03     688.176E-03
             411            1004     664.179E-03     688.176E-03
             394            1004     664.179E-03     688.176E-03
             395            1005     733.773E-03     759.656E-03
             412            1005     733.773E-03     759.656E-03
             396            1005     733.773E-03     759.656E-03
             411            1005     733.773E-03     759.656E-03
             397            1006     805.072E-03     833.424E-03
             413            1006     805.072E-03     833.424E-03
             412            1006     805.072E-03     833.424E-03
             396            1006     805.072E-03     833.424E-03
             397            1007     883.500E-03     912.320E-03
             413            1007     883.500E-03     912.320E-03
             414            1007     883.500E-03     912.320E-03
             398            1007     883.500E-03     912.320E-03
             415            1008     965.521E-03     992.579E-03
             398            1008     965.521E-03     992.579E-03
             399            1008     965.521E-03     992.579E-03
             414            1008     965.521E-03     992.579E-03
             399            1009         1.04015         1.06464
             416            1009         1.04015         1.06464
             400            1009         1.04015         1.06464
             415            1009         1.04015         1.06464
             402            1010     61.4733E-03     88.3027E-03
             401            1010     61.4733E-03     88.3027E-03
             417            1010     61.4733E-03     88.3027E-03
             418            1010     61.4733E-03     88.3027E-03
             418            1011     122.419E-03     150.914E-03
             402            1011     122.419E-03     150.914E-03
             403            1011     122.419E-03     150.914E-03
             419            1011     122.419E-03     150.914E-03
             420            1012     187.183E-03     216.076E-03
             419            1012     187.183E-03     216.076E-03
             403            1012     187.183E-03     216.076E-03
             404            1012     187.183E-03     216.076E-03
             404            1013     252.336E-03     282.641E-03
             405            1013     252.336E-03     282.641E-03
             421            1013     252.336E-03     282.641E-03
             420            1013     252.336E-03     282.641E-03
             406            1014     318.250E-03     348.638E-03
             421            1014     318.250E-03     348.638E-03
             422            1014     318.250E-03     348.638E-03
             405            1014     318.250E-03     348.638E-03
             422            1015     384.327E-03     414.846E-03
             423            1015     384.327E-03     414.846E-03
             407            1015     384.327E-03     414.846E-03
             406            1015     384.327E-03     414.846E-03
             408            1016     450.524E-03     481.159E-03
             407            1016     450.524E-03     481.159E-03
             424            1016     450.524E-03     481.159E-03
             423            1016     450.524E-03     481.159E-03
             425            1017     516.760E-03     547.545E-03
             409            1017     516.760E-03     547.545E-03
             408            1017     516.760E-03     547.545E-03
             424            1017     516.760E-03     547.545E-03
             409            1018     583.298E-03     614.176E-03
             410            1018     583.298E-03     614.176E-03
             425            1018     583.298E-03     614.176E-03
             426            1018     583.298E-03     614.176E-03
             411            1019     650.057E-03     681.507E-03
             426            1019     650.057E-03     681.507E-03
             427            1019     650.057E-03     681.507E-03
             410            1019     650.057E-03     681.507E-03
             411            1020     718.297E-03     750.228E-03
             427            1020     718.297E-03     750.228E-03
             428            1020     718.297E-03     750.228E-03
             412            1020     718.297E-03     750.228E-03
             428            1021     789.392E-03     822.615E-03
             429            1021     789.392E-03     822.615E-03
             413            1021     789.392E-03     822.615E-03
             412            1021     789.392E-03     822.615E-03
             413            1022     867.788E-03     901.537E-03
             429            1022     867.788E-03     901.537E-03
             414            1022     867.788E-03     901.537E-03
             430            1022     867.788E-03     901.537E-03
             415            1023     970.868E-03     997.959E-03
             414            1023     970.868E-03     997.959E-03
             430            1023     970.868E-03     997.959E-03
             431            1023     970.868E-03     997.959E-03
             416            1024         1.08285         1.09679
             415            1024         1.08285         1.09679
             432            1024         1.08285         1.09679
             431            1024         1.08285         1.09679
             418            1025     58.0639E-03     88.2139E-03
             433            1025     58.0639E-03     88.2139E-03
             434            1025     58.0639E-03     88.2139E-03
             417            1025     58.0639E-03     88.2139E-03
             419            1026     119.424E-03     151.040E-03
             434            1026     119.424E-03     151.040E-03
             435            1026     119.424E-03     151.040E-03
             418            1026     119.424E-03     151.040E-03
             419            1027     181.463E-03     217.861E-03
             420            1027     181.463E-03     217.861E-03
             435            1027     181.463E-03     217.861E-03
             436            1027     181.463E-03     217.861E-03
             437            1028     245.505E-03     283.744E-03
             420            1028     245.505E-03     283.744E-03
             421            1028     245.505E-03     283.744E-03
             436            1028     245.505E-03     283.744E-03
             437            1029     309.904E-03     349.229E-03
             422            1029     309.904E-03     349.229E-03
             438            1029     309.904E-03     349.229E-03
             421            1029     309.904E-03     349.229E-03
             422            1030     374.569E-03     414.105E-03
             438            1030     374.569E-03     414.105E-03
             423            1030     374.569E-03     414.105E-03
             439            1030     374.569E-03     414.105E-03
             423            1031     439.103E-03     478.592E-03
             440            1031     439.103E-03     478.592E-03
             439            1031     439.103E-03     478.592E-03
             424            1031     439.103E-03     478.592E-03
             425            1032     503.448E-03     542.700E-03
             440            1032     503.448E-03     542.700E-03
             424            1032     503.448E-03     542.700E-03
             441            1032     503.448E-03     542.700E-03
             441            1033     567.476E-03     606.347E-03
             426            1033     567.476E-03     606.347E-03
             425            1033     567.476E-03     606.347E-03
             442            1033     567.476E-03     606.347E-03
             427            1034     631.875E-03     669.927E-03
             426            1034     631.875E-03     669.927E-03
             443            1034     631.875E-03     669.927E-03
             442            1034     631.875E-03     669.927E-03
             428            1035     696.835E-03     733.846E-03
             443            1035     696.835E-03     733.846E-03
             444            1035     696.835E-03     733.846E-03
             427            1035     696.835E-03     733.846E-03
             429            1036     765.694E-03     800.952E-03
             444            1036     765.694E-03     800.952E-03
             445            1036     765.694E-03     800.952E-03
             428            1036     765.694E-03     800.952E-03
             445            1037     840.798E-03     874.328E-03
             446            1037     840.798E-03     874.328E-03
             430            1037     840.798E-03     874.328E-03
             429            1037     840.798E-03     874.328E-03
             430            1038     937.659E-03     970.699E-03
             446            1038     937.659E-03     970.699E-03
             431            1038     937.659E-03     970.699E-03
             447            1038     937.659E-03     970.699E-03
             431            1039         1.08558         1.10976
             448            1039         1.08558         1.10976
             447            1039         1.08558         1.10976
             432            1039         1.08558         1.10976
             434            1040     136.514E-03     159.006E-03
             449            1040     136.514E-03     159.006E-03
             450            1040     136.514E-03     159.006E-03
             433            1040     136.514E-03     159.006E-03
             435            1041     190.868E-03     207.354E-03
             450            1041     190.868E-03     207.354E-03
             451            1041     190.868E-03     207.354E-03
             434            1041     190.868E-03     207.354E-03
             436            1042     250.346E-03     268.718E-03
             451            1042     250.346E-03     268.718E-03
             452            1042     250.346E-03     268.718E-03
             435            1042     250.346E-03     268.718E-03
             436            1043     314.922E-03     335.076E-03
             452            1043     314.922E-03     335.076E-03
             453            1043     314.922E-03     335.076E-03
             437            1043     314.922E-03     335.076E-03
             453            1044     382.334E-03     402.881E-03
             454            1044     382.334E-03     402.881E-03
             437            1044     382.334E-03     402.881E-03
             438            1044     382.334E-03     402.881E-03
             454            1045     451.042E-03     471.657E-03
             455            1045     451.042E-03     471.657E-03
             438            1045     451.042E-03     471.657E-03
             439            1045     451.042E-03     471.657E-03
             456            1046     520.277E-03     540.525E-03
             440            1046     520.277E-03     540.525E-03
             439            1046     520.277E-03     540.525E-03
             455            1046     520.277E-03     540.525E-03
             456            1047     589.299E-03     609.381E-03
             441            1047     589.299E-03     609.381E-03
             457            1047     589.299E-03     609.381E-03
             440            1047     589.299E-03     609.381E-03
             458            1048     658.081E-03     677.370E-03
             441            1048     658.081E-03     677.370E-03
             457            1048     658.081E-03     677.370E-03
             442            1048     658.081E-03     677.370E-03
             443            1049     726.039E-03     744.484E-03
             458            1049     726.039E-03     744.484E-03
             459            1049     726.039E-03     744.484E-03
             442            1049     726.039E-03     744.484E-03
             460            1050     793.989E-03     810.056E-03
             443            1050     793.989E-03     810.056E-03
             444            1050     793.989E-03     810.056E-03
             459            1050     793.989E-03     810.056E-03
             461            1051     860.554E-03     873.719E-03
             444            1051     860.554E-03     873.719E-03
             460            1051     860.554E-03     873.719E-03
             445            1051     860.554E-03     873.719E-03
             445            1052     929.139E-03     937.103E-03
             446            1052     929.139E-03     937.103E-03
             461            1052     929.139E-03     937.103E-03
             462            1052     929.139E-03     937.103E-03
             447            1053     996.833E-03         1.00204
             462            1053     996.833E-03         1.00204
             463            1053     996.833E-03         1.00204
             446            1053     996.833E-03         1.00204
             463            1054         1.08386         1.10289
             464            1054         1.08386         1.10289
             447            1054         1.08386         1.10289
             448            1054         1.08386         1.10289
             465            1055     187.884E-03     212.127E-03
             466            1055     187.884E-03     212.127E-03
             449            1055     187.884E-03     212.127E-03
             450            1055     187.884E-03     212.127E-03
             450            1056     239.365E-03     246.532E-03
             466            1056     239.365E-03     246.532E-03
             467            1056     239.365E-03     246.532E-03
             451            1056     239.365E-03     246.532E-03
             451            1057     303.633E-03     306.162E-03
             468            1057     303.633E-03     306.162E-03
             452            1057     303.633E-03     306.162E-03
             467            1057     303.633E-03     306.162E-03
             468            1058     374.113E-03     376.068E-03
             452            1058     374.113E-03     376.068E-03
             453            1058     374.113E-03     376.068E-03
             469            1058     374.113E-03     376.068E-03
             470            1059     448.153E-03     449.920E-03
             453            1059     448.153E-03     449.920E-03
             454            1059     448.153E-03     449.920E-03
             469            1059     448.153E-03     449.920E-03
             470            1060     524.290E-03     526.048E-03
             454            1060     524.290E-03     526.048E-03
             455            1060     524.290E-03     526.048E-03
             471            1060     524.290E-03     526.048E-03
             455            1061     601.498E-03     603.110E-03
             456            1061     601.498E-03     603.110E-03
             472            1061     601.498E-03     603.110E-03
             471            1061     601.498E-03     603.110E-03
             457            1062     679.056E-03     680.654E-03
             473            1062     679.056E-03     680.654E-03
             456            1062     679.056E-03     680.654E-03
             472            1062     679.056E-03     680.654E-03
             458            1063     756.802E-03     758.017E-03
             474            1063     756.802E-03     758.017E-03
             457            1063     756.802E-03     758.017E-03
             473            1063     756.802E-03     758.017E-03
             474            1064     833.966E-03     834.921E-03
             475            1064     833.966E-03     834.921E-03
             458            1064     833.966E-03     834.921E-03
             459            1064     833.966E-03     834.921E-03
             475            1065     910.472E-03     910.232E-03
             476            1065     910.472E-03     910.232E-03
             460            1065     910.472E-03     910.232E-03
             459            1065     910.472E-03     910.232E-03
             460            1066     984.692E-03     983.034E-03
             476            1066     984.692E-03     983.034E-03
             477            1066     984.692E-03     983.034E-03
             461            1066     984.692E-03     983.034E-03
             477            1067         1.05218         1.04954
             462            1067         1.05218         1.04954
             461            1067         1.05218         1.04954
             478            1067         1.05218         1.04954
             462            1068         1.10961         1.10557
             478            1068         1.10961         1.10557
             479            1068         1.10961         1.10557
             463            1068         1.10961         1.10557
             464            1069         1.14711         1.14095
             479            1069         1.14711         1.14095
             480            1069         1.14711         1.14095
             463            1069         1.14711         1.14095
             481            1070     148.701E-03     168.360E-03
             466            1070     148.701E-03     168.360E-03
             465            1070     148.701E-03     168.360E-03
             482            1070     148.701E-03     168.360E-03
             482            1071     200.751E-03     222.373E-03
             483            1071     200.751E-03     222.373E-03
             467            1071     200.751E-03     222.373E-03
             466            1071     200.751E-03     222.373E-03
             484            1072     273.728E-03     287.578E-03
             483            1072     273.728E-03     287.578E-03
             467            1072     273.728E-03     287.578E-03
             468            1072     273.728E-03     287.578E-03
             485            1073     350.970E-03     362.493E-03
             484            1073     350.970E-03     362.493E-03
             469            1073     350.970E-03     362.493E-03
             468            1073     350.970E-03     362.493E-03
             469            1074     429.797E-03     441.204E-03
             485            1074     429.797E-03     441.204E-03
             470            1074     429.797E-03     441.204E-03
             486            1074     429.797E-03     441.204E-03
             487            1075     509.958E-03     521.555E-03
             470            1075     509.958E-03     521.555E-03
             486            1075     509.958E-03     521.555E-03
             471            1075     509.958E-03     521.555E-03
             471            1076     590.898E-03     602.814E-03
             487            1076     590.898E-03     602.814E-03
             488            1076     590.898E-03     602.814E-03
             472            1076     590.898E-03     602.814E-03
             472            1077     672.671E-03     684.669E-03
             488            1077     672.671E-03     684.669E-03
             489            1077     672.671E-03     684.669E-03
             473            1077     672.671E-03     684.669E-03
             473            1078     754.951E-03     767.174E-03
             490            1078     754.951E-03     767.174E-03
             489            1078     754.951E-03     767.174E-03
             474            1078     754.951E-03     767.174E-03
             475            1079     838.115E-03     850.518E-03
             490            1079     838.115E-03     850.518E-03
             491            1079     838.115E-03     850.518E-03
             474            1079     838.115E-03     850.518E-03
             475            1080     921.433E-03     934.766E-03
             476            1080     921.433E-03     934.766E-03
             492            1080     921.433E-03     934.766E-03
             491            1080     921.433E-03     934.766E-03
             477            1081         1.00590         1.02048
             492            1081         1.00590         1.02048
             476            1081         1.00590         1.02048
             493            1081         1.00590         1.02048
             477            1082         1.08771         1.10581
             494            1082         1.08771         1.10581
             493            1082         1.08771         1.10581
             478            1082         1.08771         1.10581
             495            1083         1.15951         1.18346
             478            1083         1.15951         1.18346
             479            1083         1.15951         1.18346
             494            1083         1.15951         1.18346
             479            1084         1.22085         1.23776
             495            1084         1.22085         1.23776
             480            1084         1.22085         1.23776
             496            1084         1.22085         1.23776
             481            1085     109.032E-03     127.888E-03
             498            1085     109.032E-03     127.888E-03
             482            1085     109.032E-03     127.888E-03
             497            1085     109.032E-03     127.888E-03
             499            1086     172.395E-03     201.569E-03
             483            1086     172.395E-03     201.569E-03
             498            1086     172.395E-03     201.569E-03
             482            1086     172.395E-03     201.569E-03
             483            1087     250.886E-03     275.837E-03
             484            1087     250.886E-03     275.837E-03
             500            1087     250.886E-03     275.837E-03
             499            1087     250.886E-03     275.837E-03
             485            1088     332.677E-03     354.899E-03
             501            1088     332.677E-03     354.899E-03
             484            1088     332.677E-03     354.899E-03
             500            1088     332.677E-03     354.899E-03
             486            1089     414.805E-03     436.906E-03
             501            1089     414.805E-03     436.906E-03
             502            1089     414.805E-03     436.906E-03
             485            1089     414.805E-03     436.906E-03
             486            1090     497.384E-03     519.745E-03
             503            1090     497.384E-03     519.745E-03
             502            1090     497.384E-03     519.745E-03
             487            1090     497.384E-03     519.745E-03
             503            1091     580.625E-03     603.242E-03
             504            1091     580.625E-03     603.242E-03
             488            1091     580.625E-03     603.242E-03
             487            1091     580.625E-03     603.242E-03
             488            1092     664.381E-03     687.267E-03
             505            1092     664.381E-03     687.267E-03
             489            1092     664.381E-03     687.267E-03
             504            1092     664.381E-03     687.267E-03
             490            1093     748.867E-03     772.053E-03
             505            1093     748.867E-03     772.053E-03
             506            1093     748.867E-03     772.053E-03
             489            1093     748.867E-03     772.053E-03
             490            1094     834.014E-03     857.909E-03
             506            1094     834.014E-03     857.909E-03
             491            1094     834.014E-03     857.909E-03
             507            1094     834.014E-03     857.909E-03
             491            1095     920.529E-03     945.976E-03
             492            1095     920.529E-03     945.976E-03
             508            1095     920.529E-03     945.976E-03
             507            1095     920.529E-03     945.976E-03
             508            1096         1.00774         1.03651
             492            1096         1.00774         1.03651
             493            1096         1.00774         1.03651
             509            1096         1.00774         1.03651
             493            1097         1.10152         1.13247
             509            1097         1.10152         1.13247
             494            1097         1.10152         1.13247
             510            1097         1.10152         1.13247
             495            1098         1.19486         1.22709
             511            1098         1.19486         1.22709
             510            1098         1.19486         1.22709
             494            1098         1.19486         1.22709
             511            1099         1.27446         1.30888
             512            1099         1.27446         1.30888
             496            1099         1.27446         1.30888
             495            1099         1.27446         1.30888
             514            1100     75.9488E-03     113.235E-03
             498            1100     75.9488E-03     113.235E-03
             497            1100     75.9488E-03     113.235E-03
             513            1100     75.9488E-03     113.235E-03
             499            1101     155.034E-03     188.073E-03
             514            1101     155.034E-03     188.073E-03
             515            1101     155.034E-03     188.073E-03
             498            1101     155.034E-03     188.073E-03
             499            1102     236.760E-03     270.637E-03
             515            1102     236.760E-03     270.637E-03
             516            1102     236.760E-03     270.637E-03
             500            1102     236.760E-03     270.637E-03
             501            1103     319.607E-03     353.108E-03
             516            1103     319.607E-03     353.108E-03
             517            1103     319.607E-03     353.108E-03
             500            1103     319.607E-03     353.108E-03
             501            1104     402.796E-03     436.215E-03
             517            1104     402.796E-03     436.215E-03
             518            1104     402.796E-03     436.215E-03
             502            1104     402.796E-03     436.215E-03
             502            1105     486.105E-03     519.744E-03
             519            1105     486.105E-03     519.744E-03
             518            1105     486.105E-03     519.744E-03
             503            1105     486.105E-03     519.744E-03
             503            1106     569.572E-03     603.388E-03
             519            1106     569.572E-03     603.388E-03
             504            1106     569.572E-03     603.388E-03
             520            1106     569.572E-03     603.388E-03
             504            1107     653.243E-03     687.163E-03
             521            1107     653.243E-03     687.163E-03
             505            1107     653.243E-03     687.163E-03
             520            1107     653.243E-03     687.163E-03
             506            1108     737.179E-03     771.216E-03
             505            1108     737.179E-03     771.216E-03
             521            1108     737.179E-03     771.216E-03
             522            1108     737.179E-03     771.216E-03
             507            1109     821.372E-03     855.833E-03
             522            1109     821.372E-03     855.833E-03
             523            1109     821.372E-03     855.833E-03
             506            1109     821.372E-03     855.833E-03
             523            1110     906.353E-03     941.685E-03
             524            1110     906.353E-03     941.685E-03
             508            1110     906.353E-03     941.685E-03
             507            1110     906.353E-03     941.685E-03
             509            1111     993.374E-03         1.03073
             524            1111     993.374E-03         1.03073
             525            1111     993.374E-03         1.03073
             508            1111     993.374E-03         1.03073
             525            1112         1.08523         1.12500
             526            1112         1.08523         1.12500
             510            1112         1.08523         1.12500
             509            1112         1.08523         1.12500
             527            1113         1.19965         1.23520
             511            1113         1.19965         1.23520
             510            1113         1.19965         1.23520
             526            1113         1.19965         1.23520
             512            1114         1.32092         1.33893
             511            1114         1.32092         1.33893
             528            1114         1.32092         1.33893
             527            1114         1.32092         1.33893
             530            1115     74.4182E-03     112.658E-03
             529            1115     74.4182E-03     112.658E-03
             514            1115     74.4182E-03     112.658E-03
             513            1115     74.4182E-03     112.658E-03
             531            1116     152.058E-03     190.467E-03
             515            1116     152.058E-03     190.467E-03
             530            1116     152.058E-03     190.467E-03
             514            1116     152.058E-03     190.467E-03
             516            1117     231.458E-03     273.976E-03
             532            1117     231.458E-03     273.976E-03
             531            1117     231.458E-03     273.976E-03
             515            1117     231.458E-03     273.976E-03
             533            1118     312.493E-03     357.263E-03
             532            1118     312.493E-03     357.263E-03
             516            1118     312.493E-03     357.263E-03
             517            1118     312.493E-03     357.263E-03
             533            1119     394.447E-03     439.558E-03
             518            1119     394.447E-03     439.558E-03
             517            1119     394.447E-03     439.558E-03
             534            1119     394.447E-03     439.558E-03
             518            1120     476.591E-03     521.816E-03
             519            1120     476.591E-03     521.816E-03
             534            1120     476.591E-03     521.816E-03
             535            1120     476.591E-03     521.816E-03
             520            1121     558.509E-03     603.665E-03
             519            1121     558.509E-03     603.665E-03
             535            1121     558.509E-03     603.665E-03
             536            1121     558.509E-03     603.665E-03
             520            1122     640.146E-03     685.247E-03
             521            1122     640.146E-03     685.247E-03
             537            1122     640.146E-03     685.247E-03
             536            1122     640.146E-03     685.247E-03
             521            1123     721.265E-03     766.158E-03
             538            1123     721.265E-03     766.158E-03
             522            1123     721.265E-03     766.158E-03
             537            1123     721.265E-03     766.158E-03
             522            1124     802.176E-03     846.704E-03
             523            1124     802.176E-03     846.704E-03
             538            1124     802.176E-03     846.704E-03
             539            1124     802.176E-03     846.704E-03
             539            1125     882.831E-03     926.618E-03
             540            1125     882.831E-03     926.618E-03
             523            1125     882.831E-03     926.618E-03
             524            1125     882.831E-03     926.618E-03
             540            1126     965.938E-03         1.00819
             525            1126     965.938E-03         1.00819
             524            1126     965.938E-03         1.00819
             541            1126     965.938E-03         1.00819
             525            1127         1.05272         1.09371
             526            1127         1.05272         1.09371
             542            1127         1.05272         1.09371
             541            1127         1.05272         1.09371
             526            1128         1.16007         1.19918
             542            1128         1.16007         1.19918
             543            1128         1.16007         1.19918
             527            1128         1.16007         1.19918
             527            1129         1.31722         1.34572
             528            1129         1.31722         1.34572
             544            1129         1.31722         1.34572
             543            1129         1.31722         1.34572
             994            1451     127.740E-03     146.253E-03
            1010            1451     127.740E-03     146.253E-03
            1011            1451     127.740E-03     146.253E-03
             995            1451     127.740E-03     146.253E-03
             996            1452     205.251E-03     222.592E-03
            1011            1452     205.251E-03     222.592E-03
            1012            1452     205.251E-03     222.592E-03
             995            1452     205.251E-03     222.592E-03
             997            1453     288.574E-03     305.773E-03
            1012            1453     288.574E-03     305.773E-03
            1013            1453     288.574E-03     305.773E-03
             996            1453     288.574E-03     305.773E-03
             997            1454     377.070E-03     393.924E-03
            1014            1454     377.070E-03     393.924E-03
            1013            1454     377.070E-03     393.924E-03
             998            1454     377.070E-03     393.924E-03
             999            1455     467.572E-03     483.730E-03
            1014            1455     467.572E-03     483.730E-03
            1015            1455     467.572E-03     483.730E-03
             998            1455     467.572E-03     483.730E-03
            1015            1456     559.021E-03     574.678E-03
            1016            1456     559.021E-03     574.678E-03
            1000            1456     559.021E-03     574.678E-03
             999            1456     559.021E-03     574.678E-03
            1000            1457     651.069E-03     665.980E-03
            1017            1457     651.069E-03     665.980E-03
            1001            1457     651.069E-03     665.980E-03
            1016            1457     651.069E-03     665.980E-03
            1001            1458     743.134E-03     757.720E-03
            1017            1458     743.134E-03     757.720E-03
            1002            1458     743.134E-03     757.720E-03
            1018            1458     743.134E-03     757.720E-03
            1019            1459     835.281E-03     848.994E-03
            1002            1459     835.281E-03     848.994E-03
            1003            1459     835.281E-03     848.994E-03
            1018            1459     835.281E-03     848.994E-03
            1003            1460     926.872E-03     940.379E-03
            1020            1460     926.872E-03     940.379E-03
            1019            1460     926.872E-03     940.379E-03
            1004            1460     926.872E-03     940.379E-03
            1004            1461         1.01793         1.03032
            1021            1461         1.01793         1.03032
            1020            1461         1.01793         1.03032
            1005            1461         1.01793         1.03032
            1005            1462         1.10821         1.11957
            1021            1462         1.10821         1.11957
            1022            1462         1.10821         1.11957
            1006            1462         1.10821         1.11957
            1022            1463         1.19596         1.20580
            1023            1463         1.19596         1.20580
            1007            1463         1.19596         1.20580
            1006            1463         1.19596         1.20580
            1023            1464         1.27459         1.28304
            1008            1464         1.27459         1.28304
            1007            1464         1.27459         1.28304
            1024            1464         1.27459         1.28304
            1009            1465         1.34042         1.35071
            1024            1465         1.34042         1.35071
            1008            1465         1.34042         1.35071
            1025            1465         1.34042         1.35071
            1027            1466     150.590E-03     176.189E-03
            1010            1466     150.590E-03     176.189E-03
            1011            1466     150.590E-03     176.189E-03
            1026            1466     150.590E-03     176.189E-03
            1012            1467     225.496E-03     242.533E-03
            1028            1467     225.496E-03     242.533E-03
            1027            1467     225.496E-03     242.533E-03
            1011            1467     225.496E-03     242.533E-03
            1029            1468     311.553E-03     325.913E-03
            1013            1468     311.553E-03     325.913E-03
            1012            1468     311.553E-03     325.913E-03
            1028            1468     311.553E-03     325.913E-03
            1014            1469     404.276E-03     418.567E-03
            1030            1469     404.276E-03     418.567E-03
            1029            1469     404.276E-03     418.567E-03
            1013            1469     404.276E-03     418.567E-03
            1014            1470     499.534E-03     513.488E-03
            1015            1470     499.534E-03     513.488E-03
            1030            1470     499.534E-03     513.488E-03
            1031            1470     499.534E-03     513.488E-03
            1031            1471     596.626E-03     610.154E-03
            1015            1471     596.626E-03     610.154E-03
            1016            1471     596.626E-03     610.154E-03
            1032            1471     596.626E-03     610.154E-03
            1017            1472     694.582E-03     707.348E-03
            1032            1472     694.582E-03     707.348E-03
            1016            1472     694.582E-03     707.348E-03
            1033            1472     694.582E-03     707.348E-03
            1034            1473     792.863E-03     805.041E-03
            1018            1473     792.863E-03     805.041E-03
            1017            1473     792.863E-03     805.041E-03
            1033            1473     792.863E-03     805.041E-03
            1035            1474     891.441E-03     902.654E-03
            1018            1474     891.441E-03     902.654E-03
            1034            1474     891.441E-03     902.654E-03
            1019            1474     891.441E-03     902.654E-03
            1035            1475     989.569E-03         1.00025
            1020            1475     989.569E-03         1.00025
            1036            1475     989.569E-03         1.00025
            1019            1475     989.569E-03         1.00025
            1036            1476         1.08797         1.09742
            1020            1476         1.08797         1.09742
            1021            1476         1.08797         1.09742
            1037            1476         1.08797         1.09742
            1038            1477         1.18517         1.19431
            1022            1477         1.18517         1.19431
            1021            1477         1.18517         1.19431
            1037            1477         1.18517         1.19431
            1039            1478         1.28260         1.29010
            1038            1478         1.28260         1.29010
            1023            1478         1.28260         1.29010
            1022            1478         1.28260         1.29010
            1023            1479         1.37211         1.37873
            1024            1479         1.37211         1.37873
            1040            1479         1.37211         1.37873
            1039            1479         1.37211         1.37873
            1024            1480         1.43291         1.44339
            1025            1480         1.43291         1.44339
            1041            1480         1.43291         1.44339
            1040            1480         1.43291         1.44339
            1043            1481     96.5203E-03     131.872E-03
            1042            1481     96.5203E-03     131.872E-03
            1027            1481     96.5203E-03     131.872E-03
            1026            1481     96.5203E-03     131.872E-03
            1044            1482     186.631E-03     214.265E-03
            1043            1482     186.631E-03     214.265E-03
            1027            1482     186.631E-03     214.265E-03
            1028            1482     186.631E-03     214.265E-03
            1045            1483     283.160E-03     307.782E-03
            1029            1483     283.160E-03     307.782E-03
            1028            1483     283.160E-03     307.782E-03
            1044            1483     283.160E-03     307.782E-03
            1030            1484     380.518E-03     405.973E-03
            1029            1484     380.518E-03     405.973E-03
            1046            1484     380.518E-03     405.973E-03
            1045            1484     380.518E-03     405.973E-03
            1031            1485     478.843E-03     505.404E-03
            1047            1485     478.843E-03     505.404E-03
            1030            1485     478.843E-03     505.404E-03
            1046            1485     478.843E-03     505.404E-03
            1032            1486     578.255E-03     605.267E-03
            1031            1486     578.255E-03     605.267E-03
            1047            1486     578.255E-03     605.267E-03
            1048            1486     578.255E-03     605.267E-03
            1049            1487     678.195E-03     705.481E-03
            1048            1487     678.195E-03     705.481E-03
            1033            1487     678.195E-03     705.481E-03
            1032            1487     678.195E-03     705.481E-03
            1033            1488     778.616E-03     805.806E-03
            1049            1488     778.616E-03     805.806E-03
            1050            1488     778.616E-03     805.806E-03
            1034            1488     778.616E-03     805.806E-03
            1051            1489     879.254E-03     906.598E-03
            1035            1489     879.254E-03     906.598E-03
            1050            1489     879.254E-03     906.598E-03
            1034            1489     879.254E-03     906.598E-03
            1052            1490     980.479E-03         1.00760
            1035            1490     980.479E-03         1.00760
            1036            1490     980.479E-03         1.00760
            1051            1490     980.479E-03         1.00760
            1036            1491         1.08229         1.10973
            1053            1491         1.08229         1.10973
            1052            1491         1.08229         1.10973
            1037            1491         1.08229         1.10973
            1038            1492         1.18506         1.21342
            1054            1492         1.18506         1.21342
            1053            1492         1.18506         1.21342
            1037            1492         1.18506         1.21342
            1038            1493         1.28903         1.32001
            1054            1493         1.28903         1.32001
            1039            1493         1.28903         1.32001
            1055            1493         1.28903         1.32001
            1040            1494         1.40619         1.43795
            1056            1494         1.40619         1.43795
            1055            1494         1.40619         1.43795
            1039            1494         1.40619         1.43795
            1041            1495         1.51672         1.53399
            1040            1495         1.51672         1.53399
            1056            1495         1.51672         1.53399
            1057            1495         1.51672         1.53399
            1043            1496     72.9849E-03     101.952E-03
            1058            1496     72.9849E-03     101.952E-03
            1059            1496     72.9849E-03     101.952E-03
            1042            1496     72.9849E-03     101.952E-03
            1059            1497     167.404E-03     202.545E-03
            1043            1497     167.404E-03     202.545E-03
            1044            1497     167.404E-03     202.545E-03
            1060            1497     167.404E-03     202.545E-03
            1060            1498     267.339E-03     305.052E-03
            1061            1498     267.339E-03     305.052E-03
            1045            1498     267.339E-03     305.052E-03
            1044            1498     267.339E-03     305.052E-03
            1062            1499     366.464E-03     405.527E-03
            1046            1499     366.464E-03     405.527E-03
            1045            1499     366.464E-03     405.527E-03
            1061            1499     366.464E-03     405.527E-03
            1047            1500     466.203E-03     506.217E-03
            1062            1500     466.203E-03     506.217E-03
            1063            1500     466.203E-03     506.217E-03
            1046            1500     466.203E-03     506.217E-03
            1063            1501     565.971E-03     606.927E-03
            1064            1501     565.971E-03     606.927E-03
            1048            1501     565.971E-03     606.927E-03
            1047            1501     565.971E-03     606.927E-03
            1065            1502     665.978E-03     707.658E-03
            1064            1502     665.978E-03     707.658E-03
            1049            1502     665.978E-03     707.658E-03
            1048            1502     665.978E-03     707.658E-03
            1049            1503     765.772E-03     808.493E-03
            1050            1503     765.772E-03     808.493E-03
            1065            1503     765.772E-03     808.493E-03
            1066            1503     765.772E-03     808.493E-03
            1066            1504     865.586E-03     908.917E-03
            1067            1504     865.586E-03     908.917E-03
            1050            1504     865.586E-03     908.917E-03
            1051            1504     865.586E-03     908.917E-03
            1068            1505     964.998E-03         1.00945
            1067            1505     964.998E-03         1.00945
            1051            1505     964.998E-03         1.00945
            1052            1505     964.998E-03         1.00945
            1068            1506         1.06406         1.10904
            1069            1506         1.06406         1.10904
            1053            1506         1.06406         1.10904
            1052            1506         1.06406         1.10904
            1053            1507         1.16312         1.20891
            1069            1507         1.16312         1.20891
            1054            1507         1.16312         1.20891
            1070            1507         1.16312         1.20891
            1071            1508         1.26215         1.30934
            1055            1508         1.26215         1.30934
            1054            1508         1.26215         1.30934
            1070            1508         1.26215         1.30934
            1056            1509         1.37370         1.42107
            1055            1509         1.37370         1.42107
            1071            1509         1.37370         1.42107
            1072            1509         1.37370         1.42107
            1073            1510         1.52304         1.56285
            1072            1510         1.52304         1.56285
            1056            1510         1.52304         1.56285
            1057            1510         1.52304         1.56285
            1753            2102     192.833E-03     202.785E-03
            1770            2102     192.833E-03     202.785E-03
            1754            2102     192.833E-03     202.785E-03
            1769            2102     192.833E-03     202.785E-03
            1754            2103     235.443E-03     259.390E-03
            1755            2103     235.443E-03     259.390E-03
            1770            2103     235.443E-03     259.390E-03
            1771            2103     235.443E-03     259.390E-03
            1755            2104     304.481E-03     331.482E-03
            1756            2104     304.481E-03     331.482E-03
            1772            2104     304.481E-03     331.482E-03
            1771            2104     304.481E-03     331.482E-03
            1757            2105     387.190E-03     414.637E-03
            1772            2105     387.190E-03     414.637E-03
            1756            2105     387.190E-03     414.637E-03
            1773            2105     387.190E-03     414.637E-03
            1773            2106     475.534E-03     502.754E-03
            1758            2106     475.534E-03     502.754E-03
            1757            2106     475.534E-03     502.754E-03
            1774            2106     475.534E-03     502.754E-03
            1774            2107     566.649E-03     593.780E-03
            1758            2107     566.649E-03     593.780E-03
            1759            2107     566.649E-03     593.780E-03
            1775            2107     566.649E-03     593.780E-03
            1759            2108     659.560E-03     686.229E-03
            1760            2108     659.560E-03     686.229E-03
            1776            2108     659.560E-03     686.229E-03
            1775            2108     659.560E-03     686.229E-03
            1760            2109     753.025E-03     780.183E-03
            1761            2109     753.025E-03     780.183E-03
            1776            2109     753.025E-03     780.183E-03
            1777            2109     753.025E-03     780.183E-03
            1761            2110     847.982E-03     873.996E-03
            1777            2110     847.982E-03     873.996E-03
            1778            2110     847.982E-03     873.996E-03
            1762            2110     847.982E-03     873.996E-03
            1762            2111     942.100E-03     969.692E-03
            1779            2111     942.100E-03     969.692E-03
            1778            2111     942.100E-03     969.692E-03
            1763            2111     942.100E-03     969.692E-03
            1763            2112         1.03853         1.06376
            1764            2112         1.03853         1.06376
            1780            2112         1.03853         1.06376
            1779            2112         1.03853         1.06376
            1765            2113         1.13284         1.16079
            1781            2113         1.13284         1.16079
            1780            2113         1.13284         1.16079
            1764            2113         1.13284         1.16079
            1766            2114         1.22912         1.25452
            1765            2114         1.22912         1.25452
            1781            2114         1.22912         1.25452
            1782            2114         1.22912         1.25452
            1767            2115         1.32599         1.35144
            1783            2115         1.32599         1.35144
            1782            2115         1.32599         1.35144
            1766            2115         1.32599         1.35144
            1768            2116         1.41189         1.44165
            1783            2116         1.41189         1.44165
            1784            2116         1.41189         1.44165
            1767            2116         1.41189         1.44165
            1769            2117     178.677E-03     176.834E-03
            1786            2117     178.677E-03     176.834E-03
            1770            2117     178.677E-03     176.834E-03
            1785            2117     178.677E-03     176.834E-03
            1770            2118     226.858E-03     238.858E-03
            1786            2118     226.858E-03     238.858E-03
            1787            2118     226.858E-03     238.858E-03
            1771            2118     226.858E-03     238.858E-03
            1788            2119     289.638E-03     303.952E-03
            1771            2119     289.638E-03     303.952E-03
            1772            2119     289.638E-03     303.952E-03
            1787            2119     289.638E-03     303.952E-03
            1772            2120     365.905E-03     378.869E-03
            1773            2120     365.905E-03     378.869E-03
            1789            2120     365.905E-03     378.869E-03
            1788            2120     365.905E-03     378.869E-03
            1773            2121     447.117E-03     459.312E-03
            1789            2121     447.117E-03     459.312E-03
            1774            2121     447.117E-03     459.312E-03
            1790            2121     447.117E-03     459.312E-03
            1790            2122     530.807E-03     542.872E-03
            1774            2122     530.807E-03     542.872E-03
            1775            2122     530.807E-03     542.872E-03
            1791            2122     530.807E-03     542.872E-03
            1776            2123     616.339E-03     627.709E-03
            1791            2123     616.339E-03     627.709E-03
            1775            2123     616.339E-03     627.709E-03
            1792            2123     616.339E-03     627.709E-03
            1793            2124     702.338E-03     714.067E-03
            1776            2124     702.338E-03     714.067E-03
            1777            2124     702.338E-03     714.067E-03
            1792            2124     702.338E-03     714.067E-03
            1777            2125     789.768E-03     800.344E-03
            1794            2125     789.768E-03     800.344E-03
            1778            2125     789.768E-03     800.344E-03
            1793            2125     789.768E-03     800.344E-03
            1794            2126     876.450E-03     888.162E-03
            1779            2126     876.450E-03     888.162E-03
            1778            2126     876.450E-03     888.162E-03
            1795            2126     876.450E-03     888.162E-03
            1780            2127     964.971E-03     974.865E-03
            1795            2127     964.971E-03     974.865E-03
            1779            2127     964.971E-03     974.865E-03
            1796            2127     964.971E-03     974.865E-03
            1796            2128         1.05194         1.06339
            1780            2128         1.05194         1.06339
            1781            2128         1.05194         1.06339
            1797            2128         1.05194         1.06339
            1798            2129         1.13772         1.14666
            1797            2129         1.13772         1.14666
            1782            2129         1.13772         1.14666
            1781            2129         1.13772         1.14666
            1799            2130         1.23152         1.24004
            1782            2130         1.23152         1.24004
            1783            2130         1.23152         1.24004
            1798            2130         1.23152         1.24004
            1800            2131         1.33245         1.35129
            1799            2131         1.33245         1.35129
            1783            2131         1.33245         1.35129
            1784            2131         1.33245         1.35129
            1802            2132     167.541E-03     183.625E-03
            1786            2132     167.541E-03     183.625E-03
            1801            2132     167.541E-03     183.625E-03
            1785            2132     167.541E-03     183.625E-03
            1786            2133     192.662E-03     240.011E-03
            1787            2133     192.662E-03     240.011E-03
            1803            2133     192.662E-03     240.011E-03
            1802            2133     192.662E-03     240.011E-03
            1787            2134     242.989E-03     302.056E-03
            1804            2134     242.989E-03     302.056E-03
            1788            2134     242.989E-03     302.056E-03
            1803            2134     242.989E-03     302.056E-03
            1805            2135     309.509E-03     373.548E-03
            1788            2135     309.509E-03     373.548E-03
            1789            2135     309.509E-03     373.548E-03
            1804            2135     309.509E-03     373.548E-03
            1789            2136     382.526E-03     448.589E-03
            1806            2136     382.526E-03     448.589E-03
            1790            2136     382.526E-03     448.589E-03
            1805            2136     382.526E-03     448.589E-03
            1806            2137     458.326E-03     525.817E-03
            1807            2137     458.326E-03     525.817E-03
            1791            2137     458.326E-03     525.817E-03
            1790            2137     458.326E-03     525.817E-03
            1808            2138     535.990E-03     604.046E-03
            1807            2138     535.990E-03     604.046E-03
            1792            2138     535.990E-03     604.046E-03
            1791            2138     535.990E-03     604.046E-03
            1809            2139     614.480E-03     683.355E-03
            1792            2139     614.480E-03     683.355E-03
            1808            2139     614.480E-03     683.355E-03
            1793            2139     614.480E-03     683.355E-03
            1809            2140     693.937E-03     762.815E-03
            1793            2140     693.937E-03     762.815E-03
            1794            2140     693.937E-03     762.815E-03
            1810            2140     693.937E-03     762.815E-03
            1811            2141     773.681E-03     843.232E-03
            1810            2141     773.681E-03     843.232E-03
            1794            2141     773.681E-03     843.232E-03
            1795            2141     773.681E-03     843.232E-03
            1796            2142     854.034E-03     923.227E-03
            1812            2142     854.034E-03     923.227E-03
            1811            2142     854.034E-03     923.227E-03
            1795            2142     854.034E-03     923.227E-03
            1812            2143     935.067E-03         1.00466
            1813            2143     935.067E-03         1.00466
            1797            2143     935.067E-03         1.00466
            1796            2143     935.067E-03         1.00466
            1798            2144         1.01413         1.08464
            1814            2144         1.01413         1.08464
            1813            2144         1.01413         1.08464
            1797            2144         1.01413         1.08464
            1814            2145         1.10221         1.17185
            1798            2145         1.10221         1.17185
            1799            2145         1.10221         1.17185
            1815            2145         1.10221         1.17185
            1816            2146         1.24013         1.30058
            1800            2146         1.24013         1.30058
            1799            2146         1.24013         1.30058
            1815            2146         1.24013         1.30058
            1817            2147     218.934E-03     217.998E-03
            1818            2147     218.934E-03     217.998E-03
            1801            2147     218.934E-03     217.998E-03
            1802            2147     218.934E-03     217.998E-03
            1818            2148     259.628E-03     248.107E-03
            1802            2148     259.628E-03     248.107E-03
            1819            2148     259.628E-03     248.107E-03
            1803            2148     259.628E-03     248.107E-03
            1804            2149     314.671E-03     297.125E-03
            1820            2149     314.671E-03     297.125E-03
            1803            2149     314.671E-03     297.125E-03
            1819            2149     314.671E-03     297.125E-03
            1821            2150     379.038E-03     359.605E-03
            1820            2150     379.038E-03     359.605E-03
            1804            2150     379.038E-03     359.605E-03
            1805            2150     379.038E-03     359.605E-03
            1805            2151     449.512E-03     428.326E-03
            1822            2151     449.512E-03     428.326E-03
            1821            2151     449.512E-03     428.326E-03
            1806            2151     449.512E-03     428.326E-03
            1806            2152     523.230E-03     500.637E-03
            1823            2152     523.230E-03     500.637E-03
            1822            2152     523.230E-03     500.637E-03
            1807            2152     523.230E-03     500.637E-03
            1824            2153     598.810E-03     575.529E-03
            1807            2153     598.810E-03     575.529E-03
            1823            2153     598.810E-03     575.529E-03
            1808            2153     598.810E-03     575.529E-03
            1825            2154     675.846E-03     651.757E-03
            1824            2154     675.846E-03     651.757E-03
            1808            2154     675.846E-03     651.757E-03
            1809            2154     675.846E-03     651.757E-03
            1826            2155     753.424E-03     729.191E-03
            1809            2155     753.424E-03     729.191E-03
            1810            2155     753.424E-03     729.191E-03
            1825            2155     753.424E-03     729.191E-03
            1810            2156     831.838E-03     806.861E-03
            1811            2156     831.838E-03     806.861E-03
            1826            2156     831.838E-03     806.861E-03
            1827            2156     831.838E-03     806.861E-03
            1811            2157     909.780E-03     884.926E-03
            1827            2157     909.780E-03     884.926E-03
            1828            2157     909.780E-03     884.926E-03
            1812            2157     909.780E-03     884.926E-03
            1828            2158     988.575E-03     962.791E-03
            1812            2158     988.575E-03     962.791E-03
            1813            2158     988.575E-03     962.791E-03
            1829            2158     988.575E-03     962.791E-03
            1814            2159         1.06708         1.04223
            1829            2159         1.06708         1.04223
            1813            2159         1.06708         1.04223
            1830            2159         1.06708         1.04223
            1814            2160         1.14630         1.12111
            1815            2160         1.14630         1.12111
            1830            2160         1.14630         1.12111
            1831            2160         1.14630         1.12111
            1816            2161         1.16833         1.13303
            1831            2161         1.16833         1.13303
            1815            2161         1.16833         1.13303
            1832            2161         1.16833         1.13303
            2273            2468     422.255E-06     453.363E-06
            2289            2468     422.255E-06     453.363E-06
            2274            2468     422.255E-06     453.363E-06
            2290            2468     422.255E-06     453.363E-06
            2275            2469     320.127E-06     356.861E-06
            2290            2469     320.127E-06     356.861E-06
            2291            2469     320.127E-06     356.861E-06
            2274            2469     320.127E-06     356.861E-06
            2291            2470     285.300E-06     321.929E-06
            2292            2470     285.300E-06     321.929E-06
            2276            2470     285.300E-06     321.929E-06
            2275            2470     285.300E-06     321.929E-06
            2292            2471     274.743E-06     310.140E-06
            2293            2471     274.743E-06     310.140E-06
            2277            2471     274.743E-06     310.140E-06
            2276            2471     274.743E-06     310.140E-06
            2293            2472     266.060E-06     299.963E-06
            2277            2472     266.060E-06     299.963E-06
            2278            2472     266.060E-06     299.963E-06
            2294            2472     266.060E-06     299.963E-06
            2294            2473     257.770E-06     290.761E-06
            2279            2473     257.770E-06     290.761E-06
            2295            2473     257.770E-06     290.761E-06
            2278            2473     257.770E-06     290.761E-06
            2279            2474     249.260E-06     281.186E-06
            2296            2474     249.260E-06     281.186E-06
            2280            2474     249.260E-06     281.186E-06
            2295            2474     249.260E-06     281.186E-06
            2296            2475     241.572E-06     272.130E-06
            2281            2475     241.572E-06     272.130E-06
            2297            2475     241.572E-06     272.130E-06
            2280            2475     241.572E-06     272.130E-06
            2297            2476     234.622E-06     263.469E-06
            2282            2476     234.622E-06     263.469E-06
            2298            2476     234.622E-06     263.469E-06
            2281            2476     234.622E-06     263.469E-06
            2282            2477     229.065E-06     255.507E-06
            2299            2477     229.065E-06     255.507E-06
            2298            2477     229.065E-06     255.507E-06
            2283            2477     229.065E-06     255.507E-06
            2284            2478     224.624E-06     248.346E-06
            2283            2478     224.624E-06     248.346E-06
            2300            2478     224.624E-06     248.346E-06
            2299            2478     224.624E-06     248.346E-06
            2301            2479     221.836E-06     241.759E-06
            2284            2479     221.836E-06     241.759E-06
            2285            2479     221.836E-06     241.759E-06
            2300            2479     221.836E-06     241.759E-06
            2302            2480     219.816E-06     235.552E-06
            2285            2480     219.816E-06     235.552E-06
            2301            2480     219.816E-06     235.552E-06
            2286            2480     219.816E-06     235.552E-06
            2303            2481     216.670E-06     233.758E-06
            2286            2481     216.670E-06     233.758E-06
            2287            2481     216.670E-06     233.758E-06
            2302            2481     216.670E-06     233.758E-06
            2287            2482     215.865E-06     233.327E-06
            2288            2482     215.865E-06     233.327E-06
            2303            2482     215.865E-06     233.327E-06
            2304            2482     215.865E-06     233.327E-06
            2289            2483     353.825E-06     359.770E-06
            2305            2483     353.825E-06     359.770E-06
            2290            2483     353.825E-06     359.770E-06
            2306            2483     353.825E-06     359.770E-06
            2307            2484     320.496E-06     338.173E-06
            2306            2484     320.496E-06     338.173E-06
            2290            2484     320.496E-06     338.173E-06
            2291            2484     320.496E-06     338.173E-06
            2307            2485     302.794E-06     325.393E-06
            2292            2485     302.794E-06     325.393E-06
            2308            2485     302.794E-06     325.393E-06
            2291            2485     302.794E-06     325.393E-06
            2309            2486     294.049E-06     316.042E-06
            2293            2486     294.049E-06     316.042E-06
            2292            2486     294.049E-06     316.042E-06
            2308            2486     294.049E-06     316.042E-06
            2309            2487     283.925E-06     304.308E-06
            2310            2487     283.925E-06     304.308E-06
            2293            2487     283.925E-06     304.308E-06
            2294            2487     283.925E-06     304.308E-06
            2294            2488     272.525E-06     292.882E-06
            2310            2488     272.525E-06     292.882E-06
            2311            2488     272.525E-06     292.882E-06
            2295            2488     272.525E-06     292.882E-06
            2295            2489     262.967E-06     282.472E-06
            2312            2489     262.967E-06     282.472E-06
            2296            2489     262.967E-06     282.472E-06
            2311            2489     262.967E-06     282.472E-06
            2296            2490     254.165E-06     273.077E-06
            2312            2490     254.165E-06     273.077E-06
            2313            2490     254.165E-06     273.077E-06
            2297            2490     254.165E-06     273.077E-06
            2314            2491     246.911E-06     264.874E-06
            2313            2491     246.911E-06     264.874E-06
            2298            2491     246.911E-06     264.874E-06
            2297            2491     246.911E-06     264.874E-06
            2298            2492     240.849E-06     257.523E-06
            2314            2492     240.849E-06     257.523E-06
            2315            2492     240.849E-06     257.523E-06
            2299            2492     240.849E-06     257.523E-06
            2300            2493     235.952E-06     251.422E-06
            2316            2493     235.952E-06     251.422E-06
            2315            2493     235.952E-06     251.422E-06
            2299            2493     235.952E-06     251.422E-06
            2317            2494     232.625E-06     246.119E-06
            2300            2494     232.625E-06     246.119E-06
            2301            2494     232.625E-06     246.119E-06
            2316            2494     232.625E-06     246.119E-06
            2318            2495     230.908E-06     241.679E-06
            2301            2495     230.908E-06     241.679E-06
            2302            2495     230.908E-06     241.679E-06
            2317            2495     230.908E-06     241.679E-06
            2302            2496     231.771E-06     236.611E-06
            2319            2496     231.771E-06     236.611E-06
            2318            2496     231.771E-06     236.611E-06
            2303            2496     231.771E-06     236.611E-06
            2303            2497     239.791E-06     227.685E-06
            2304            2497     239.791E-06     227.685E-06
            2320            2497     239.791E-06     227.685E-06
            2319            2497     239.791E-06     227.685E-06
            2306            2498     252.186E-06     262.398E-06
            2321            2498     252.186E-06     262.398E-06
            2305            2498     252.186E-06     262.398E-06
            2322            2498     252.186E-06     262.398E-06
            2307            2499     281.062E-06     296.730E-06
            2306            2499     281.062E-06     296.730E-06
            2323            2499     281.062E-06     296.730E-06
            2322            2499     281.062E-06     296.730E-06
            2323            2500     310.683E-06     319.939E-06
            2307            2500     310.683E-06     319.939E-06
            2308            2500     310.683E-06     319.939E-06
            2324            2500     310.683E-06     319.939E-06
            2309            2501     308.226E-06     314.578E-06
            2325            2501     308.226E-06     314.578E-06
            2324            2501     308.226E-06     314.578E-06
            2308            2501     308.226E-06     314.578E-06
            2325            2502     296.954E-06     304.060E-06
            2309            2502     296.954E-06     304.060E-06
            2326            2502     296.954E-06     304.060E-06
            2310            2502     296.954E-06     304.060E-06
            2310            2503     285.931E-06     292.324E-06
            2326            2503     285.931E-06     292.324E-06
            2327            2503     285.931E-06     292.324E-06
            2311            2503     285.931E-06     292.324E-06
            2327            2504     275.327E-06     282.035E-06
            2311            2504     275.327E-06     282.035E-06
            2312            2504     275.327E-06     282.035E-06
            2328            2504     275.327E-06     282.035E-06
            2329            2505     266.763E-06     273.279E-06
            2313            2505     266.763E-06     273.279E-06
            2312            2505     266.763E-06     273.279E-06
            2328            2505     266.763E-06     273.279E-06
            2313            2506     259.378E-06     265.766E-06
            2329            2506     259.378E-06     265.766E-06
            2314            2506     259.378E-06     265.766E-06
            2330            2506     259.378E-06     265.766E-06
            2315            2507     253.173E-06     259.674E-06
            2314            2507     253.173E-06     259.674E-06
            2331            2507     253.173E-06     259.674E-06
            2330            2507     253.173E-06     259.674E-06
            2316            2508     248.252E-06     254.405E-06
            2332            2508     248.252E-06     254.405E-06
            2315            2508     248.252E-06     254.405E-06
            2331            2508     248.252E-06     254.405E-06
            2332            2509     244.001E-06     250.752E-06
            2317            2509     244.001E-06     250.752E-06
            2333            2509     244.001E-06     250.752E-06
            2316            2509     244.001E-06     250.752E-06
            2318            2510     242.116E-06     248.212E-06
            2333            2510     242.116E-06     248.212E-06
            2317            2510     242.116E-06     248.212E-06
            2334            2510     242.116E-06     248.212E-06
            2335            2511     247.601E-06     239.922E-06
            2334            2511     247.601E-06     239.922E-06
            2319            2511     247.601E-06     239.922E-06
            2318            2511     247.601E-06     239.922E-06
            2319            2512     253.281E-06     227.150E-06
            2336            2512     253.281E-06     227.150E-06
            2335            2512     253.281E-06     227.150E-06
            2320            2512     253.281E-06     227.150E-06
            2338            2513     170.671E-06     171.489E-06
            2322            2513     170.671E-06     171.489E-06
            2321            2513     170.671E-06     171.489E-06
            2337            2513     170.671E-06     171.489E-06
            2322            2514     249.824E-06     251.290E-06
            2339            2514     249.824E-06     251.290E-06
            2338            2514     249.824E-06     251.290E-06
            2323            2514     249.824E-06     251.290E-06
            2324            2515     302.281E-06     294.255E-06
            2339            2515     302.281E-06     294.255E-06
            2340            2515     302.281E-06     294.255E-06
            2323            2515     302.281E-06     294.255E-06
            2341            2516     309.259E-06     300.277E-06
            2324            2516     309.259E-06     300.277E-06
            2340            2516     309.259E-06     300.277E-06
            2325            2516     309.259E-06     300.277E-06
            2341            2517     303.533E-06     294.926E-06
            2326            2517     303.533E-06     294.926E-06
            2342            2517     303.533E-06     294.926E-06
            2325            2517     303.533E-06     294.926E-06
            2343            2518     294.868E-06     287.071E-06
            2342            2518     294.868E-06     287.071E-06
            2327            2518     294.868E-06     287.071E-06
            2326            2518     294.868E-06     287.071E-06
            2327            2519     286.515E-06     279.333E-06
            2343            2519     286.515E-06     279.333E-06
            2328            2519     286.515E-06     279.333E-06
            2344            2519     286.515E-06     279.333E-06
            2328            2520     278.907E-06     272.472E-06
            2344            2520     278.907E-06     272.472E-06
            2345            2520     278.907E-06     272.472E-06
            2329            2520     278.907E-06     272.472E-06
            2345            2521     272.232E-06     266.718E-06
            2329            2521     272.232E-06     266.718E-06
            2330            2521     272.232E-06     266.718E-06
            2346            2521     272.232E-06     266.718E-06
            2347            2522     266.400E-06     261.736E-06
            2330            2522     266.400E-06     261.736E-06
            2346            2522     266.400E-06     261.736E-06
            2331            2522     266.400E-06     261.736E-06
            2347            2523     261.176E-06     257.981E-06
            2332            2523     261.176E-06     257.981E-06
            2348            2523     261.176E-06     257.981E-06
            2331            2523     261.176E-06     257.981E-06
            2348            2524     256.947E-06     255.042E-06
            2332            2524     256.947E-06     255.042E-06
            2333            2524     256.947E-06     255.042E-06
            2349            2524     256.947E-06     255.042E-06
            2333            2525     253.355E-06     253.400E-06
            2349            2525     253.355E-06     253.400E-06
            2334            2525     253.355E-06     253.400E-06
            2350            2525     253.355E-06     253.400E-06
            2334            2526     251.457E-06     253.159E-06
            2351            2526     251.457E-06     253.159E-06
            2350            2526     251.457E-06     253.159E-06
            2335            2526     251.457E-06     253.159E-06
            2336            2527     258.091E-06     247.699E-06
            2351            2527     258.091E-06     247.699E-06
            2352            2527     258.091E-06     247.699E-06
            2335            2527     258.091E-06     247.699E-06
            2353            2528     131.732E-06     140.974E-06
            2337            2528     131.732E-06     140.974E-06
            2338            2528     131.732E-06     140.974E-06
            2354            2528     131.732E-06     140.974E-06
            2339            2529     230.402E-06     200.695E-06
            2355            2529     230.402E-06     200.695E-06
            2338            2529     230.402E-06     200.695E-06
            2354            2529     230.402E-06     200.695E-06
            2340            2530     279.742E-06     252.154E-06
            2339            2530     279.742E-06     252.154E-06
            2356            2530     279.742E-06     252.154E-06
            2355            2530     279.742E-06     252.154E-06
            2340            2531     299.585E-06     274.146E-06
            2357            2531     299.585E-06     274.146E-06
            2341            2531     299.585E-06     274.146E-06
            2356            2531     299.585E-06     274.146E-06
            2358            2532     304.160E-06     279.557E-06
            2357            2532     304.160E-06     279.557E-06
            2342            2532     304.160E-06     279.557E-06
            2341            2532     304.160E-06     279.557E-06
            2342            2533     301.551E-06     278.889E-06
            2358            2533     301.551E-06     278.889E-06
            2343            2533     301.551E-06     278.889E-06
            2359            2533     301.551E-06     278.889E-06
            2343            2534     296.993E-06     275.578E-06
            2360            2534     296.993E-06     275.578E-06
            2344            2534     296.993E-06     275.578E-06
            2359            2534     296.993E-06     275.578E-06
            2360            2535     291.426E-06     271.746E-06
            2345            2535     291.426E-06     271.746E-06
            2361            2535     291.426E-06     271.746E-06
            2344            2535     291.426E-06     271.746E-06
            2346            2536     285.822E-06     267.958E-06
            2362            2536     285.822E-06     267.958E-06
            2345            2536     285.822E-06     267.958E-06
            2361            2536     285.822E-06     267.958E-06
            2346            2537     280.461E-06     264.572E-06
            2363            2537     280.461E-06     264.572E-06
            2362            2537     280.461E-06     264.572E-06
            2347            2537     280.461E-06     264.572E-06
            2363            2538     275.279E-06     261.925E-06
            2348            2538     275.279E-06     261.925E-06
            2347            2538     275.279E-06     261.925E-06
            2364            2538     275.279E-06     261.925E-06
            2364            2539     270.749E-06     259.861E-06
            2348            2539     270.749E-06     259.861E-06
            2365            2539     270.749E-06     259.861E-06
            2349            2539     270.749E-06     259.861E-06
            2366            2540     265.724E-06     258.740E-06
            2349            2540     265.724E-06     258.740E-06
            2365            2540     265.724E-06     258.740E-06
            2350            2540     265.724E-06     258.740E-06
            2367            2541     258.556E-06     262.813E-06
            2350            2541     258.556E-06     262.813E-06
            2366            2541     258.556E-06     262.813E-06
            2351            2541     258.556E-06     262.813E-06
            2367            2542     252.702E-06     270.564E-06
            2368            2542     252.702E-06     270.564E-06
            2352            2542     252.702E-06     270.564E-06
            2351            2542     252.702E-06     270.564E-06
            2545            2693     215.862E-06     233.384E-06
            2562            2693     215.862E-06     233.384E-06
            2546            2693     215.862E-06     233.384E-06
            2561            2693     215.862E-06     233.384E-06
            2546            2694     216.685E-06     233.730E-06
            2562            2694     216.685E-06     233.730E-06
            2547            2694     216.685E-06     233.730E-06
            2563            2694     216.685E-06     233.730E-06
            2548            2695     219.793E-06     235.486E-06
            2547            2695     219.793E-06     235.486E-06
            2564            2695     219.793E-06     235.486E-06
            2563            2695     219.793E-06     235.486E-06
            2565            2696     221.741E-06     241.651E-06
            2549            2696     221.741E-06     241.651E-06
            2564            2696     221.741E-06     241.651E-06
            2548            2696     221.741E-06     241.651E-06
            2566            2697     224.455E-06     248.158E-06
            2565            2697     224.455E-06     248.158E-06
            2550            2697     224.455E-06     248.158E-06
            2549            2697     224.455E-06     248.158E-06
            2566            2698     228.813E-06     255.236E-06
            2551            2698     228.813E-06     255.236E-06
            2550            2698     228.813E-06     255.236E-06
            2567            2698     228.813E-06     255.236E-06
            2567            2699     234.276E-06     263.110E-06
            2568            2699     234.276E-06     263.110E-06
            2551            2699     234.276E-06     263.110E-06
            2552            2699     234.276E-06     263.110E-06
            2568            2700     241.129E-06     271.680E-06
            2569            2700     241.129E-06     271.680E-06
            2552            2700     241.129E-06     271.680E-06
            2553            2700     241.129E-06     271.680E-06
            2569            2701     248.723E-06     280.649E-06
            2570            2701     248.723E-06     280.649E-06
            2553            2701     248.723E-06     280.649E-06
            2554            2701     248.723E-06     280.649E-06
            2571            2702     257.145E-06     290.136E-06
            2554            2702     257.145E-06     290.136E-06
            2555            2702     257.145E-06     290.136E-06
            2570            2702     257.145E-06     290.136E-06
            2571            2703     265.344E-06     299.240E-06
            2572            2703     265.344E-06     299.240E-06
            2556            2703     265.344E-06     299.240E-06
            2555            2703     265.344E-06     299.240E-06
            2557            2704     273.887E-06     309.279E-06
            2573            2704     273.887E-06     309.279E-06
            2572            2704     273.887E-06     309.279E-06
            2556            2704     273.887E-06     309.279E-06
            2573            2705     284.094E-06     320.750E-06
            2574            2705     284.094E-06     320.750E-06
            2558            2705     284.094E-06     320.750E-06
            2557            2705     284.094E-06     320.750E-06
            2575            2706     318.311E-06     355.115E-06
            2574            2706     318.311E-06     355.115E-06
            2558            2706     318.311E-06     355.115E-06
            2559            2706     318.311E-06     355.115E-06
            2559            2707     419.719E-06     450.960E-06
            2560            2707     419.719E-06     450.960E-06
            2575            2707     419.719E-06     450.960E-06
            2576            2707     419.719E-06     450.960E-06
            2577            2708     239.677E-06     227.607E-06
            2562            2708     239.677E-06     227.607E-06
            2578            2708     239.677E-06     227.607E-06
            2561            2708     239.677E-06     227.607E-06
            2563            2709     231.612E-06     236.524E-06
            2579            2709     231.612E-06     236.524E-06
            2562            2709     231.612E-06     236.524E-06
            2578            2709     231.612E-06     236.524E-06
            2563            2710     230.720E-06     241.521E-06
            2580            2710     230.720E-06     241.521E-06
            2579            2710     230.720E-06     241.521E-06
            2564            2710     230.720E-06     241.521E-06
            2581            2711     232.395E-06     245.887E-06
            2565            2711     232.395E-06     245.887E-06
            2564            2711     232.395E-06     245.887E-06
            2580            2711     232.395E-06     245.887E-06
            2581            2712     235.664E-06     251.118E-06
            2565            2712     235.664E-06     251.118E-06
            2582            2712     235.664E-06     251.118E-06
            2566            2712     235.664E-06     251.118E-06
            2566            2713     240.482E-06     257.142E-06
            2567            2713     240.482E-06     257.142E-06
            2583            2713     240.482E-06     257.142E-06
            2582            2713     240.482E-06     257.142E-06
            2583            2714     246.451E-06     264.403E-06
            2568            2714     246.451E-06     264.403E-06
            2567            2714     246.451E-06     264.403E-06
            2584            2714     246.451E-06     264.403E-06
            2569            2715     253.601E-06     272.505E-06
            2568            2715     253.601E-06     272.505E-06
            2585            2715     253.601E-06     272.505E-06
            2584            2715     253.601E-06     272.505E-06
            2569            2716     262.293E-06     281.790E-06
            2570            2716     262.293E-06     281.790E-06
            2586            2716     262.293E-06     281.790E-06
            2585            2716     262.293E-06     281.790E-06
            2587            2717     271.740E-06     292.091E-06
            2570            2717     271.740E-06     292.091E-06
            2571            2717     271.740E-06     292.091E-06
            2586            2717     271.740E-06     292.091E-06
            2571            2718     283.049E-06     303.413E-06
            2572            2718     283.049E-06     303.413E-06
            2587            2718     283.049E-06     303.413E-06
            2588            2718     283.049E-06     303.413E-06
            2573            2719     293.121E-06     315.082E-06
            2589            2719     293.121E-06     315.082E-06
            2588            2719     293.121E-06     315.082E-06
            2572            2719     293.121E-06     315.082E-06
            2589            2720     301.749E-06     324.346E-06
            2573            2720     301.749E-06     324.346E-06
            2574            2720     301.749E-06     324.346E-06
            2590            2720     301.749E-06     324.346E-06
            2575            2721     319.104E-06     336.867E-06
            2590            2721     319.104E-06     336.867E-06
            2574            2721     319.104E-06     336.867E-06
            2591            2721     319.104E-06     336.867E-06
            2575            2722     351.844E-06     357.852E-06
            2591            2722     351.844E-06     357.852E-06
            2592            2722     351.844E-06     357.852E-06
            2576            2722     351.844E-06     357.852E-06
            2577            2723     253.108E-06     226.911E-06
            2594            2723     253.108E-06     226.911E-06
            2593            2723     253.108E-06     226.911E-06
            2578            2723     253.108E-06     226.911E-06
            2579            2724     247.318E-06     239.758E-06
            2595            2724     247.318E-06     239.758E-06
            2594            2724     247.318E-06     239.758E-06
            2578            2724     247.318E-06     239.758E-06
            2595            2725     241.794E-06     247.967E-06
            2579            2725     241.794E-06     247.967E-06
            2580            2725     241.794E-06     247.967E-06
            2596            2725     241.794E-06     247.967E-06
            2597            2726     243.675E-06     250.409E-06
            2596            2726     243.675E-06     250.409E-06
            2581            2726     243.675E-06     250.409E-06
            2580            2726     243.675E-06     250.409E-06
            2582            2727     247.874E-06     254.009E-06
            2581            2727     247.874E-06     254.009E-06
            2597            2727     247.874E-06     254.009E-06
            2598            2727     247.874E-06     254.009E-06
            2583            2728     252.724E-06     259.209E-06
            2598            2728     252.724E-06     259.209E-06
            2582            2728     252.724E-06     259.209E-06
            2599            2728     252.724E-06     259.209E-06
            2600            2729     258.843E-06     265.215E-06
            2584            2729     258.843E-06     265.215E-06
            2599            2729     258.843E-06     265.215E-06
            2583            2729     258.843E-06     265.215E-06
            2585            2730     266.126E-06     272.626E-06
            2601            2730     266.126E-06     272.626E-06
            2600            2730     266.126E-06     272.626E-06
            2584            2730     266.126E-06     272.626E-06
            2585            2731     274.574E-06     281.267E-06
            2586            2731     274.574E-06     281.267E-06
            2601            2731     274.574E-06     281.267E-06
            2602            2731     274.574E-06     281.267E-06
            2587            2732     285.067E-06     291.436E-06
            2586            2732     285.067E-06     291.436E-06
            2602            2732     285.067E-06     291.436E-06
            2603            2732     285.067E-06     291.436E-06
            2603            2733     296.013E-06     303.096E-06
            2587            2733     296.013E-06     303.096E-06
            2604            2733     296.013E-06     303.096E-06
            2588            2733     296.013E-06     303.096E-06
            2605            2734     307.305E-06     313.607E-06
            2588            2734     307.305E-06     313.607E-06
            2604            2734     307.305E-06     313.607E-06
            2589            2734     307.305E-06     313.607E-06
            2590            2735     310.012E-06     319.160E-06
            2606            2735     310.012E-06     319.160E-06
            2589            2735     310.012E-06     319.160E-06
            2605            2735     310.012E-06     319.160E-06
            2607            2736     280.430E-06     296.081E-06
            2591            2736     280.430E-06     296.081E-06
            2590            2736     280.430E-06     296.081E-06
            2606            2736     280.430E-06     296.081E-06
            2591            2737     250.836E-06     261.088E-06
            2592            2737     250.836E-06     261.088E-06
            2607            2737     250.836E-06     261.088E-06
            2608            2737     250.836E-06     261.088E-06
            2594            2738     257.764E-06     247.376E-06
            2593            2738     257.764E-06     247.376E-06
            2609            2738     257.764E-06     247.376E-06
            2610            2738     257.764E-06     247.376E-06
            2611            2739     251.114E-06     252.811E-06
            2594            2739     251.114E-06     252.811E-06
            2610            2739     251.114E-06     252.811E-06
            2595            2739     251.114E-06     252.811E-06
            2611            2740     252.993E-06     253.014E-06
            2596            2740     252.993E-06     253.014E-06
            2595            2740     252.993E-06     253.014E-06
            2612            2740     252.993E-06     253.014E-06
            2613            2741     256.544E-06     254.621E-06
            2596            2741     256.544E-06     254.621E-06
            2612            2741     256.544E-06     254.621E-06
            2597            2741     256.544E-06     254.621E-06
            2598            2742     260.729E-06     257.512E-06
            2614            2742     260.729E-06     257.512E-06
            2613            2742     260.729E-06     257.512E-06
            2597            2742     260.729E-06     257.512E-06
            2599            2743     265.897E-06     261.212E-06
            2614            2743     265.897E-06     261.212E-06
            2598            2743     265.897E-06     261.212E-06
            2615            2743     265.897E-06     261.212E-06
            2615            2744     271.663E-06     266.126E-06
            2600            2744     271.663E-06     266.126E-06
            2616            2744     271.663E-06     266.126E-06
            2599            2744     271.663E-06     266.126E-06
            2617            2745     278.261E-06     271.799E-06
            2600            2745     278.261E-06     271.799E-06
            2616            2745     278.261E-06     271.799E-06
            2601            2745     278.261E-06     271.799E-06
            2602            2746     285.783E-06     278.572E-06
            2618            2746     285.783E-06     278.572E-06
            2601            2746     285.783E-06     278.572E-06
            2617            2746     285.783E-06     278.572E-06
            2602            2747     294.058E-06     286.234E-06
            2618            2747     294.058E-06     286.234E-06
            2603            2747     294.058E-06     286.234E-06
            2619            2747     294.058E-06     286.234E-06
            2620            2748     302.696E-06     294.055E-06
            2603            2748     302.696E-06     294.055E-06
            2619            2748     302.696E-06     294.055E-06
            2604            2748     302.696E-06     294.055E-06
            2621            2749     308.516E-06     299.485E-06
            2605            2749     308.516E-06     299.485E-06
            2620            2749     308.516E-06     299.485E-06
            2604            2749     308.516E-06     299.485E-06
            2622            2750     301.895E-06     293.750E-06
            2621            2750     301.895E-06     293.750E-06
            2606            2750     301.895E-06     293.750E-06
            2605            2750     301.895E-06     293.750E-06
            2623            2751     249.857E-06     251.185E-06
            2607            2751     249.857E-06     251.185E-06
            2622            2751     249.857E-06     251.185E-06
            2606            2751     249.857E-06     251.185E-06
            2607            2752     169.973E-06     170.808E-06
            2608            2752     169.973E-06     170.808E-06
            2624            2752     169.973E-06     170.808E-06
            2623            2752     169.973E-06     170.808E-06
            2625            2753     252.284E-06     270.115E-06
            2626            2753     252.284E-06     270.115E-06
            2610            2753     252.284E-06     270.115E-06
            2609            2753     252.284E-06     270.115E-06
            2610            2754     258.164E-06     262.316E-06
            2626            2754     258.164E-06     262.316E-06
            2627            2754     258.164E-06     262.316E-06
            2611            2754     258.164E-06     262.316E-06
            2628            2755     265.306E-06     258.243E-06
            2611            2755     265.306E-06     258.243E-06
            2612            2755     265.306E-06     258.243E-06
            2627            2755     265.306E-06     258.243E-06
            2613            2756     270.281E-06     259.364E-06
            2628            2756     270.281E-06     259.364E-06
            2629            2756     270.281E-06     259.364E-06
            2612            2756     270.281E-06     259.364E-06
            2613            2757     274.773E-06     261.391E-06
            2614            2757     274.773E-06     261.391E-06
            2629            2757     274.773E-06     261.391E-06
            2630            2757     274.773E-06     261.391E-06
            2615            2758     279.918E-06     263.996E-06
            2630            2758     279.918E-06     263.996E-06
            2614            2758     279.918E-06     263.996E-06
            2631            2758     279.918E-06     263.996E-06
            2616            2759     285.239E-06     267.340E-06
            2615            2759     285.239E-06     267.340E-06
            2631            2759     285.239E-06     267.340E-06
            2632            2759     285.239E-06     267.340E-06
            2633            2760     290.806E-06     271.087E-06
            2632            2760     290.806E-06     271.087E-06
            2616            2760     290.806E-06     271.087E-06
            2617            2760     290.806E-06     271.087E-06
            2618            2761     296.349E-06     274.892E-06
            2634            2761     296.349E-06     274.892E-06
            2617            2761     296.349E-06     274.892E-06
            2633            2761     296.349E-06     274.892E-06
            2619            2762     300.910E-06     278.208E-06
            2634            2762     300.910E-06     278.208E-06
            2618            2762     300.910E-06     278.208E-06
            2635            2762     300.910E-06     278.208E-06
            2635            2763     303.584E-06     278.941E-06
            2619            2763     303.584E-06     278.941E-06
            2620            2763     303.584E-06     278.941E-06
            2636            2763     303.584E-06     278.941E-06
            2637            2764     299.189E-06     273.707E-06
            2620            2764     299.189E-06     273.707E-06
            2636            2764     299.189E-06     273.707E-06
            2621            2764     299.189E-06     273.707E-06
            2638            2765     279.604E-06     251.995E-06
            2621            2765     279.604E-06     251.995E-06
            2637            2765     279.604E-06     251.995E-06
            2622            2765     279.604E-06     251.995E-06
            2623            2766     230.737E-06     200.962E-06
            2639            2766     230.737E-06     200.962E-06
            2638            2766     230.737E-06     200.962E-06
            2622            2766     230.737E-06     200.962E-06
            2640            2767     131.654E-06     140.937E-06
            2639            2767     131.654E-06     140.937E-06
            2623            2767     131.654E-06     140.937E-06
            2624            2767     131.654E-06     140.937E-06
            3028            3027     169.645E-03     182.154E-03
            3027            3027     169.645E-03     182.154E-03
            3012            3027     169.645E-03     182.154E-03
            3011            3027     169.645E-03     182.154E-03
            3029            3028     179.937E-03     218.808E-03
            3028            3028     179.937E-03     218.808E-03
            3012            3028     179.937E-03     218.808E-03
            3013            3028     179.937E-03     218.808E-03
            3014            3029     207.649E-03     259.034E-03
            3029            3029     207.649E-03     259.034E-03
            3013            3029     207.649E-03     259.034E-03
            3030            3029     207.649E-03     259.034E-03
            3031            3030     250.099E-03     308.491E-03
            3014            3030     250.099E-03     308.491E-03
            3030            3030     250.099E-03     308.491E-03
            3015            3030     250.099E-03     308.491E-03
            3016            3031     299.427E-03     361.384E-03
            3031            3031     299.427E-03     361.384E-03
            3032            3031     299.427E-03     361.384E-03
            3015            3031     299.427E-03     361.384E-03
            3032            3032     352.295E-03     416.719E-03
            3033            3032     352.295E-03     416.719E-03
            3017            3032     352.295E-03     416.719E-03
            3016            3032     352.295E-03     416.719E-03
            3034            3033     407.622E-03     473.248E-03
            3018            3033     407.622E-03     473.248E-03
            3017            3033     407.622E-03     473.248E-03
            3033            3033     407.622E-03     473.248E-03
            3018            3034     464.187E-03     531.058E-03
            3035            3034     464.187E-03     531.058E-03
            3019            3034     464.187E-03     531.058E-03
            3034            3034     464.187E-03     531.058E-03
            3036            3035     521.973E-03     589.146E-03
            3019            3035     521.973E-03     589.146E-03
            3020            3035     521.973E-03     589.146E-03
            3035            3035     521.973E-03     589.146E-03
            3020            3036     580.270E-03     648.324E-03
            3036            3036     580.270E-03     648.324E-03
            3021            3036     580.270E-03     648.324E-03
            3037            3036     580.270E-03     648.324E-03
            3038            3037     639.286E-03     707.184E-03
            3037            3037     639.286E-03     707.184E-03
            3022            3037     639.286E-03     707.184E-03
            3021            3037     639.286E-03     707.184E-03
            3039            3038     699.316E-03     767.538E-03
            3023            3038     699.316E-03     767.538E-03
            3022            3038     699.316E-03     767.538E-03
            3038            3038     699.316E-03     767.538E-03
            3023            3039     757.452E-03     826.675E-03
            3040            3039     757.452E-03     826.675E-03
            3039            3039     757.452E-03     826.675E-03
            3024            3039     757.452E-03     826.675E-03
            3025            3040     821.492E-03     889.901E-03
            3040            3040     821.492E-03     889.901E-03
            3024            3040     821.492E-03     889.901E-03
            3041            3040     821.492E-03     889.901E-03
            3041            3041     931.457E-03     992.074E-03
            3026            3041     931.457E-03     992.074E-03
            3025            3041     931.457E-03     992.074E-03
            3042            3041     931.457E-03     992.074E-03
            3027            3042     206.734E-03     202.284E-03
            3043            3042     206.734E-03     202.284E-03
            3044            3042     206.734E-03     202.284E-03
            3028            3042     206.734E-03     202.284E-03
            3045            3043     233.718E-03     218.861E-03
            3044            3043     233.718E-03     218.861E-03
            3029            3043     233.718E-03     218.861E-03
            3028            3043     233.718E-03     218.861E-03
            3029            3044     270.267E-03     248.063E-03
            3030            3044     270.267E-03     248.063E-03
            3045            3044     270.267E-03     248.063E-03
            3046            3044     270.267E-03     248.063E-03
            3030            3045     314.624E-03     288.938E-03
            3031            3045     314.624E-03     288.938E-03
            3046            3045     314.624E-03     288.938E-03
            3047            3045     314.624E-03     288.938E-03
            3048            3046     364.224E-03     335.575E-03
            3047            3046     364.224E-03     335.575E-03
            3031            3046     364.224E-03     335.575E-03
            3032            3046     364.224E-03     335.575E-03
            3049            3047     416.801E-03     386.027E-03
            3048            3047     416.801E-03     386.027E-03
            3032            3047     416.801E-03     386.027E-03
            3033            3047     416.801E-03     386.027E-03
            3033            3048     471.264E-03     439.268E-03
            3034            3048     471.264E-03     439.268E-03
            3049            3048     471.264E-03     439.268E-03
            3050            3048     471.264E-03     439.268E-03
            3034            3049     527.249E-03     494.066E-03
            3051            3049     527.249E-03     494.066E-03
            3050            3049     527.249E-03     494.066E-03
            3035            3049     527.249E-03     494.066E-03
            3035            3050     583.902E-03     550.276E-03
            3036            3050     583.902E-03     550.276E-03
            3052            3050     583.902E-03     550.276E-03
            3051            3050     583.902E-03     550.276E-03
            3037            3051     641.513E-03     606.957E-03
            3036            3051     641.513E-03     606.957E-03
            3052            3051     641.513E-03     606.957E-03
            3053            3051     641.513E-03     606.957E-03
            3054            3052     698.821E-03     664.270E-03
            3053            3052     698.821E-03     664.270E-03
            3037            3052     698.821E-03     664.270E-03
            3038            3052     698.821E-03     664.270E-03
            3038            3053     756.766E-03     721.040E-03
            3054            3053     756.766E-03     721.040E-03
            3039            3053     756.766E-03     721.040E-03
            3055            3053     756.766E-03     721.040E-03
            3040            3054     814.926E-03     779.970E-03
            3056            3054     814.926E-03     779.970E-03
            3039            3054     814.926E-03     779.970E-03
            3055            3054     814.926E-03     779.970E-03
            3040            3055     876.794E-03     841.347E-03
            3056            3055     876.794E-03     841.347E-03
            3041            3055     876.794E-03     841.347E-03
            3057            3055     876.794E-03     841.347E-03
            3058            3056     877.345E-03     832.975E-03
            3042            3056     877.345E-03     832.975E-03
            3041            3056     877.345E-03     832.975E-03
            3057            3056     877.345E-03     832.975E-03
            3044            3057     181.028E-03     185.326E-03
            3060            3057     181.028E-03     185.326E-03
            3059            3057     181.028E-03     185.326E-03
            3043            3057     181.028E-03     185.326E-03
            3045            3058     207.048E-03     199.768E-03
            3061            3058     207.048E-03     199.768E-03
            3044            3058     207.048E-03     199.768E-03
            3060            3058     207.048E-03     199.768E-03
            3045            3059     231.601E-03     219.415E-03
            3061            3059     231.601E-03     219.415E-03
            3046            3059     231.601E-03     219.415E-03
            3062            3059     231.601E-03     219.415E-03
            3046            3060     260.512E-03     247.588E-03
            3063            3060     260.512E-03     247.588E-03
            3047            3060     260.512E-03     247.588E-03
            3062            3060     260.512E-03     247.588E-03
            3063            3061     292.907E-03     279.786E-03
            3047            3061     292.907E-03     279.786E-03
            3064            3061     292.907E-03     279.786E-03
            3048            3061     292.907E-03     279.786E-03
            3049            3062     328.391E-03     315.230E-03
            3064            3062     328.391E-03     315.230E-03
            3065            3062     328.391E-03     315.230E-03
            3048            3062     328.391E-03     315.230E-03
            3049            3063     365.558E-03     352.646E-03
            3065            3063     365.558E-03     352.646E-03
            3066            3063     365.558E-03     352.646E-03
            3050            3063     365.558E-03     352.646E-03
            3050            3064     404.354E-03     391.304E-03
            3066            3064     404.354E-03     391.304E-03
            3051            3064     404.354E-03     391.304E-03
            3067            3064     404.354E-03     391.304E-03
            3068            3065     443.834E-03     431.085E-03
            3052            3065     443.834E-03     431.085E-03
            3051            3065     443.834E-03     431.085E-03
            3067            3065     443.834E-03     431.085E-03
            3069            3066     484.039E-03     471.063E-03
            3068            3066     484.039E-03     471.063E-03
            3053            3066     484.039E-03     471.063E-03
            3052            3066     484.039E-03     471.063E-03
            3070            3067     525.223E-03     512.523E-03
            3053            3067     525.223E-03     512.523E-03
            3054            3067     525.223E-03     512.523E-03
            3069            3067     525.223E-03     512.523E-03
            3054            3068     568.202E-03     555.438E-03
            3055            3068     568.202E-03     555.438E-03
            3071            3068     568.202E-03     555.438E-03
            3070            3068     568.202E-03     555.438E-03
            3072            3069     622.661E-03     608.914E-03
            3071            3069     622.661E-03     608.914E-03
            3055            3069     622.661E-03     608.914E-03
            3056            3069     622.661E-03     608.914E-03
            3057            3070     686.017E-03     677.559E-03
            3072            3070     686.017E-03     677.559E-03
            3056            3070     686.017E-03     677.559E-03
            3073            3070     686.017E-03     677.559E-03
            3058            3071     758.282E-03     774.152E-03
            3074            3071     758.282E-03     774.152E-03
            3073            3071     758.282E-03     774.152E-03
            3057            3071     758.282E-03     774.152E-03
            3075            3072     157.488E-03     168.403E-03
            3076            3072     157.488E-03     168.403E-03
            3060            3072     157.488E-03     168.403E-03
            3059            3072     157.488E-03     168.403E-03
            3077            3073     163.144E-03     181.542E-03
            3061            3073     163.144E-03     181.542E-03
            3076            3073     163.144E-03     181.542E-03
            3060            3073     163.144E-03     181.542E-03
            3061            3074     172.095E-03     196.935E-03
            3077            3074     172.095E-03     196.935E-03
            3078            3074     172.095E-03     196.935E-03
            3062            3074     172.095E-03     196.935E-03
            3062            3075     184.425E-03     216.288E-03
            3079            3075     184.425E-03     216.288E-03
            3078            3075     184.425E-03     216.288E-03
            3063            3075     184.425E-03     216.288E-03
            3064            3076     199.704E-03     237.376E-03
            3079            3076     199.704E-03     237.376E-03
            3080            3076     199.704E-03     237.376E-03
            3063            3076     199.704E-03     237.376E-03
            3080            3077     217.912E-03     259.797E-03
            3081            3077     217.912E-03     259.797E-03
            3065            3077     217.912E-03     259.797E-03
            3064            3077     217.912E-03     259.797E-03
            3065            3078     238.321E-03     283.105E-03
            3081            3078     238.321E-03     283.105E-03
            3082            3078     238.321E-03     283.105E-03
            3066            3078     238.321E-03     283.105E-03
            3082            3079     260.326E-03     307.371E-03
            3067            3079     260.326E-03     307.371E-03
            3066            3079     260.326E-03     307.371E-03
            3083            3079     260.326E-03     307.371E-03
            3067            3080     283.285E-03     331.915E-03
            3068            3080     283.285E-03     331.915E-03
            3083            3080     283.285E-03     331.915E-03
            3084            3080     283.285E-03     331.915E-03
            3068            3081     307.491E-03     357.489E-03
            3084            3081     307.491E-03     357.489E-03
            3085            3081     307.491E-03     357.489E-03
            3069            3081     307.491E-03     357.489E-03
            3085            3082     332.673E-03     383.963E-03
            3086            3082     332.673E-03     383.963E-03
            3069            3082     332.673E-03     383.963E-03
            3070            3082     332.673E-03     383.963E-03
            3071            3083     364.661E-03     416.689E-03
            3086            3083     364.661E-03     416.689E-03
            3070            3083     364.661E-03     416.689E-03
            3087            3083     364.661E-03     416.689E-03
            3088            3084     408.715E-03     462.117E-03
            3071            3084     408.715E-03     462.117E-03
            3072            3084     408.715E-03     462.117E-03
            3087            3084     408.715E-03     462.117E-03
            3073            3085     497.083E-03     551.321E-03
            3072            3085     497.083E-03     551.321E-03
            3088            3085     497.083E-03     551.321E-03
            3089            3085     497.083E-03     551.321E-03
            3073            3086     694.685E-03     740.678E-03
            3090            3086     694.685E-03     740.678E-03
            3089            3086     694.685E-03     740.678E-03
            3074            3086     694.685E-03     740.678E-03
            3075            3087     182.175E-03     171.348E-03
            3076            3087     182.175E-03     171.348E-03
            3092            3087     182.175E-03     171.348E-03
            3091            3087     182.175E-03     171.348E-03
            3077            3088     185.200E-03     190.828E-03
            3093            3088     185.200E-03     190.828E-03
            3092            3088     185.200E-03     190.828E-03
            3076            3088     185.200E-03     190.828E-03
            3077            3089     192.926E-03     206.743E-03
            3094            3089     192.926E-03     206.743E-03
            3078            3089     192.926E-03     206.743E-03
            3093            3089     192.926E-03     206.743E-03
            3094            3090     204.856E-03     223.948E-03
            3095            3090     204.856E-03     223.948E-03
            3078            3090     204.856E-03     223.948E-03
            3079            3090     204.856E-03     223.948E-03
            3095            3091     219.764E-03     243.277E-03
            3079            3091     219.764E-03     243.277E-03
            3096            3091     219.764E-03     243.277E-03
            3080            3091     219.764E-03     243.277E-03
            3081            3092     237.781E-03     263.991E-03
            3096            3092     237.781E-03     263.991E-03
            3080            3092     237.781E-03     263.991E-03
            3097            3092     237.781E-03     263.991E-03
            3097            3093     258.253E-03     286.600E-03
            3098            3093     258.253E-03     286.600E-03
            3082            3093     258.253E-03     286.600E-03
            3081            3093     258.253E-03     286.600E-03
            3099            3094     280.497E-03     310.434E-03
            3098            3094     280.497E-03     310.434E-03
            3083            3094     280.497E-03     310.434E-03
            3082            3094     280.497E-03     310.434E-03
            3099            3095     304.388E-03     335.622E-03
            3100            3095     304.388E-03     335.622E-03
            3083            3095     304.388E-03     335.622E-03
            3084            3095     304.388E-03     335.622E-03
            3100            3096     329.195E-03     361.750E-03
            3084            3096     329.195E-03     361.750E-03
            3101            3096     329.195E-03     361.750E-03
            3085            3096     329.195E-03     361.750E-03
            3085            3097     355.944E-03     389.656E-03
            3086            3097     355.944E-03     389.656E-03
            3102            3097     355.944E-03     389.656E-03
            3101            3097     355.944E-03     389.656E-03
            3103            3098     384.455E-03     420.154E-03
            3086            3098     384.455E-03     420.154E-03
            3102            3098     384.455E-03     420.154E-03
            3087            3098     384.455E-03     420.154E-03
            3087            3099     424.021E-03     458.511E-03
            3103            3099     424.021E-03     458.511E-03
            3104            3099     424.021E-03     458.511E-03
            3088            3099     424.021E-03     458.511E-03
            3105            3100     504.274E-03     528.237E-03
            3088            3100     504.274E-03     528.237E-03
            3089            3100     504.274E-03     528.237E-03
            3104            3100     504.274E-03     528.237E-03
            3106            3101     632.692E-03     636.676E-03
            3105            3101     632.692E-03     636.676E-03
            3090            3101     632.692E-03     636.676E-03
            3089            3101     632.692E-03     636.676E-03
            3107            3102     200.455E-03     181.302E-03
            3091            3102     200.455E-03     181.302E-03
            3092            3102     200.455E-03     181.302E-03
            3108            3102     200.455E-03     181.302E-03
            3108            3103     206.116E-03     198.380E-03
            3109            3103     206.116E-03     198.380E-03
            3092            3103     206.116E-03     198.380E-03
            3093            3103     206.116E-03     198.380E-03
            3110            3104     212.735E-03     216.664E-03
            3109            3104     212.735E-03     216.664E-03
            3093            3104     212.735E-03     216.664E-03
            3094            3104     212.735E-03     216.664E-03
            3111            3105     223.405E-03     232.433E-03
            3110            3105     223.405E-03     232.433E-03
            3094            3105     223.405E-03     232.433E-03
            3095            3105     223.405E-03     232.433E-03
            3112            3106     238.412E-03     248.971E-03
            3111            3106     238.412E-03     248.971E-03
            3095            3106     238.412E-03     248.971E-03
            3096            3106     238.412E-03     248.971E-03
            3112            3107     256.266E-03     268.180E-03
            3096            3107     256.266E-03     268.180E-03
            3113            3107     256.266E-03     268.180E-03
            3097            3107     256.266E-03     268.180E-03
            3097            3108     276.520E-03     289.449E-03
            3113            3108     276.520E-03     289.449E-03
            3098            3108     276.520E-03     289.449E-03
            3114            3108     276.520E-03     289.449E-03
            3114            3109     299.058E-03     312.815E-03
            3099            3109     299.058E-03     312.815E-03
            3115            3109     299.058E-03     312.815E-03
            3098            3109     299.058E-03     312.815E-03
            3099            3110     323.440E-03     338.056E-03
            3115            3110     323.440E-03     338.056E-03
            3116            3110     323.440E-03     338.056E-03
            3100            3110     323.440E-03     338.056E-03
            3101            3111     349.433E-03     364.814E-03
            3116            3111     349.433E-03     364.814E-03
            3100            3111     349.433E-03     364.814E-03
            3117            3111     349.433E-03     364.814E-03
            3117            3112     376.498E-03     393.118E-03
            3102            3112     376.498E-03     393.118E-03
            3118            3112     376.498E-03     393.118E-03
            3101            3112     376.498E-03     393.118E-03
            3102            3113     402.083E-03     420.479E-03
            3118            3113     402.083E-03     420.479E-03
            3119            3113     402.083E-03     420.479E-03
            3103            3113     402.083E-03     420.479E-03
            3103            3114     428.420E-03     447.294E-03
            3104            3114     428.420E-03     447.294E-03
            3120            3114     428.420E-03     447.294E-03
            3119            3114     428.420E-03     447.294E-03
            3121            3115     458.996E-03     473.834E-03
            3104            3115     458.996E-03     473.834E-03
            3105            3115     458.996E-03     473.834E-03
            3120            3115     458.996E-03     473.834E-03
            3106            3116     518.027E-03     531.806E-03
            3122            3116     518.027E-03     531.806E-03
            3121            3116     518.027E-03     531.806E-03
            3105            3116     518.027E-03     531.806E-03
            3124            3117     216.301E-03     197.580E-03
            3107            3117     216.301E-03     197.580E-03
            3123            3117     216.301E-03     197.580E-03
            3108            3117     216.301E-03     197.580E-03
            3124            3118     222.078E-03     214.270E-03
            3108            3118     222.078E-03     214.270E-03
            3109            3118     222.078E-03     214.270E-03
            3125            3118     222.078E-03     214.270E-03
            3110            3119     229.155E-03     228.283E-03
            3125            3119     229.155E-03     228.283E-03
            3109            3119     229.155E-03     228.283E-03
            3126            3119     229.155E-03     228.283E-03
            3110            3120     240.884E-03     240.500E-03
            3127            3120     240.884E-03     240.500E-03
            3111            3120     240.884E-03     240.500E-03
            3126            3120     240.884E-03     240.500E-03
            3128            3121     255.922E-03     254.851E-03
            3127            3121     255.922E-03     254.851E-03
            3111            3121     255.922E-03     254.851E-03
            3112            3121     255.922E-03     254.851E-03
            3112            3122     273.267E-03     271.876E-03
            3128            3122     273.267E-03     271.876E-03
            3113            3122     273.267E-03     271.876E-03
            3129            3122     273.267E-03     271.876E-03
            3114            3123     292.958E-03     291.338E-03
            3129            3123     292.958E-03     291.338E-03
            3130            3123     292.958E-03     291.338E-03
            3113            3123     292.958E-03     291.338E-03
            3114            3124     314.777E-03     313.092E-03
            3130            3124     314.777E-03     313.092E-03
            3115            3124     314.777E-03     313.092E-03
            3131            3124     314.777E-03     313.092E-03
            3115            3125     338.478E-03     336.754E-03
            3132            3125     338.478E-03     336.754E-03
            3116            3125     338.478E-03     336.754E-03
            3131            3125     338.478E-03     336.754E-03
            3133            3126     363.993E-03     362.342E-03
            3116            3126     363.993E-03     362.342E-03
            3117            3126     363.993E-03     362.342E-03
            3132            3126     363.993E-03     362.342E-03
            3117            3127     388.540E-03     387.568E-03
            3133            3127     388.540E-03     387.568E-03
            3118            3127     388.540E-03     387.568E-03
            3134            3127     388.540E-03     387.568E-03
            3118            3128     411.180E-03     410.679E-03
            3134            3128     411.180E-03     410.679E-03
            3119            3128     411.180E-03     410.679E-03
            3135            3128     411.180E-03     410.679E-03
            3119            3129     414.609E-03     420.054E-03
            3120            3129     414.609E-03     420.054E-03
            3135            3129     414.609E-03     420.054E-03
            3136            3129     414.609E-03     420.054E-03
            3120            3130     391.983E-03     404.790E-03
            3137            3130     391.983E-03     404.790E-03
            3121            3130     391.983E-03     404.790E-03
            3136            3130     391.983E-03     404.790E-03
            3137            3131     411.137E-03     412.552E-03
            3138            3131     411.137E-03     412.552E-03
            3122            3131     411.137E-03     412.552E-03
            3121            3131     411.137E-03     412.552E-03
            3124            3132     229.329E-03     224.361E-03
            3140            3132     229.329E-03     224.361E-03
            3123            3132     229.329E-03     224.361E-03
            3139            3132     229.329E-03     224.361E-03
            3140            3133     233.168E-03     235.398E-03
            3124            3133     233.168E-03     235.398E-03
            3125            3133     233.168E-03     235.398E-03
            3141            3133     233.168E-03     235.398E-03
            3126            3134     244.352E-03     240.137E-03
            3141            3134     244.352E-03     240.137E-03
            3125            3134     244.352E-03     240.137E-03
            3142            3134     244.352E-03     240.137E-03
            3127            3135     258.149E-03     248.728E-03
            3126            3135     258.149E-03     248.728E-03
            3143            3135     258.149E-03     248.728E-03
            3142            3135     258.149E-03     248.728E-03
            3143            3136     272.786E-03     261.126E-03
            3127            3136     272.786E-03     261.126E-03
            3128            3136     272.786E-03     261.126E-03
            3144            3136     272.786E-03     261.126E-03
            3128            3137     289.408E-03     275.673E-03
            3144            3137     289.408E-03     275.673E-03
            3129            3137     289.408E-03     275.673E-03
            3145            3137     289.408E-03     275.673E-03
            3145            3138     307.761E-03     292.542E-03
            3129            3138     307.761E-03     292.542E-03
            3130            3138     307.761E-03     292.542E-03
            3146            3138     307.761E-03     292.542E-03
            3131            3139     327.624E-03     311.122E-03
            3146            3139     327.624E-03     311.122E-03
            3147            3139     327.624E-03     311.122E-03
            3130            3139     327.624E-03     311.122E-03
            3132            3140     348.934E-03     331.245E-03
            3147            3140     348.934E-03     331.245E-03
            3131            3140     348.934E-03     331.245E-03
            3148            3140     348.934E-03     331.245E-03
            3149            3141     370.371E-03     351.715E-03
            3133            3141     370.371E-03     351.715E-03
            3148            3141     370.371E-03     351.715E-03
            3132            3141     370.371E-03     351.715E-03
            3134            3142     390.994E-03     371.207E-03
            3149            3142     390.994E-03     371.207E-03
            3133            3142     390.994E-03     371.207E-03
            3150            3142     390.994E-03     371.207E-03
            3135            3143     403.153E-03     383.662E-03
            3150            3143     403.153E-03     383.662E-03
            3151            3143     403.153E-03     383.662E-03
            3134            3143     403.153E-03     383.662E-03
            3135            3144     396.742E-03     379.485E-03
            3151            3144     396.742E-03     379.485E-03
            3152            3144     396.742E-03     379.485E-03
            3136            3144     396.742E-03     379.485E-03
            3136            3145     341.341E-03     333.510E-03
            3153            3145     341.341E-03     333.510E-03
            3137            3145     341.341E-03     333.510E-03
            3152            3145     341.341E-03     333.510E-03
            3138            3146     304.543E-03     301.087E-03
            3153            3146     304.543E-03     301.087E-03
            3137            3146     304.543E-03     301.087E-03
            3154            3146     304.543E-03     301.087E-03
            3139            3147     234.416E-03     252.763E-03
            3140            3147     234.416E-03     252.763E-03
            3155            3147     234.416E-03     252.763E-03
            3156            3147     234.416E-03     252.763E-03
            3157            3148     248.081E-03     249.059E-03
            3140            3148     248.081E-03     249.059E-03
            3156            3148     248.081E-03     249.059E-03
            3141            3148     248.081E-03     249.059E-03
            3157            3149     262.054E-03     250.793E-03
            3141            3149     262.054E-03     250.793E-03
            3158            3149     262.054E-03     250.793E-03
            3142            3149     262.054E-03     250.793E-03
            3158            3150     275.626E-03     258.451E-03
            3142            3150     275.626E-03     258.451E-03
            3143            3150     275.626E-03     258.451E-03
            3159            3150     275.626E-03     258.451E-03
            3144            3151     289.930E-03     268.560E-03
            3159            3151     289.930E-03     268.560E-03
            3143            3151     289.930E-03     268.560E-03
            3160            3151     289.930E-03     268.560E-03
            3145            3152     305.555E-03     280.819E-03
            3160            3152     305.555E-03     280.819E-03
            3161            3152     305.555E-03     280.819E-03
            3144            3152     305.555E-03     280.819E-03
            3145            3153     322.031E-03     294.400E-03
            3161            3153     322.031E-03     294.400E-03
            3162            3153     322.031E-03     294.400E-03
            3146            3153     322.031E-03     294.400E-03
            3146            3154     339.228E-03     308.870E-03
            3162            3154     339.228E-03     308.870E-03
            3163            3154     339.228E-03     308.870E-03
            3147            3154     339.228E-03     308.870E-03
            3163            3155     356.077E-03     323.377E-03
            3147            3155     356.077E-03     323.377E-03
            3148            3155     356.077E-03     323.377E-03
            3164            3155     356.077E-03     323.377E-03
            3164            3156     371.598E-03     336.200E-03
            3148            3156     371.598E-03     336.200E-03
            3149            3156     371.598E-03     336.200E-03
            3165            3156     371.598E-03     336.200E-03
            3149            3157     382.720E-03     344.889E-03
            3165            3157     382.720E-03     344.889E-03
            3166            3157     382.720E-03     344.889E-03
            3150            3157     382.720E-03     344.889E-03
            3167            3158     383.818E-03     343.039E-03
            3166            3158     383.818E-03     343.039E-03
            3150            3158     383.818E-03     343.039E-03
            3151            3158     383.818E-03     343.039E-03
            3152            3159     366.542E-03     321.634E-03
            3167            3159     366.542E-03     321.634E-03
            3168            3159     366.542E-03     321.634E-03
            3151            3159     366.542E-03     321.634E-03
            3153            3160     306.705E-03     260.974E-03
            3168            3160     306.705E-03     260.974E-03
            3152            3160     306.705E-03     260.974E-03
            3169            3160     306.705E-03     260.974E-03
            3169            3161     231.025E-03     222.171E-03
            3170            3161     231.025E-03     222.171E-03
            3153            3161     231.025E-03     222.171E-03
            3154            3161     231.025E-03     222.171E-03
            3172            3162     121.145E-03     133.780E-03
            3171            3162     121.145E-03     133.780E-03
            3155            3162     121.145E-03     133.780E-03
            3156            3162     121.145E-03     133.780E-03
            3157            3163     133.090E-03     131.373E-03
            3173            3163     133.090E-03     131.373E-03
            3156            3163     133.090E-03     131.373E-03
            3172            3163     133.090E-03     131.373E-03
            3174            3164     140.462E-03     133.492E-03
            3158            3164     140.462E-03     133.492E-03
            3173            3164     140.462E-03     133.492E-03
            3157            3164     140.462E-03     133.492E-03
            3158            3165     148.289E-03     138.635E-03
            3174            3165     148.289E-03     138.635E-03
            3159            3165     148.289E-03     138.635E-03
            3175            3165     148.289E-03     138.635E-03
            3176            3166     156.485E-03     144.284E-03
            3175            3166     156.485E-03     144.284E-03
            3159            3166     156.485E-03     144.284E-03
            3160            3166     156.485E-03     144.284E-03
            3161            3167     165.272E-03     151.001E-03
            3160            3167     165.272E-03     151.001E-03
            3177            3167     165.272E-03     151.001E-03
            3176            3167     165.272E-03     151.001E-03
            3162            3168     174.299E-03     158.223E-03
            3161            3168     174.299E-03     158.223E-03
            3177            3168     174.299E-03     158.223E-03
            3178            3168     174.299E-03     158.223E-03
            3179            3169     183.379E-03     165.540E-03
            3178            3169     183.379E-03     165.540E-03
            3162            3169     183.379E-03     165.540E-03
            3163            3169     183.379E-03     165.540E-03
            3163            3170     191.865E-03     172.468E-03
            3164            3170     191.865E-03     172.468E-03
            3180            3170     191.865E-03     172.468E-03
            3179            3170     191.865E-03     172.468E-03
            3165            3171     199.136E-03     178.076E-03
            3164            3171     199.136E-03     178.076E-03
            3180            3171     199.136E-03     178.076E-03
            3181            3171     199.136E-03     178.076E-03
            3166            3172     202.923E-03     180.112E-03
            3165            3172     202.923E-03     180.112E-03
            3182            3172     202.923E-03     180.112E-03
            3181            3172     202.923E-03     180.112E-03
            3167            3173     202.301E-03     176.978E-03
            3182            3173     202.301E-03     176.978E-03
            3166            3173     202.301E-03     176.978E-03
            3183            3173     202.301E-03     176.978E-03
            3167            3174     189.942E-03     161.431E-03
            3183            3174     189.942E-03     161.431E-03
            3168            3174     189.942E-03     161.431E-03
            3184            3174     189.942E-03     161.431E-03
            3168            3175     164.863E-03     130.854E-03
            3169            3175     164.863E-03     130.854E-03
            3184            3175     164.863E-03     130.854E-03
            3185            3175     164.863E-03     130.854E-03
            3186            3176     124.138E-03     118.554E-03
            3170            3176     124.138E-03     118.554E-03
            3185            3176     124.138E-03     118.554E-03
            3169            3176     124.138E-03     118.554E-03


  Minimum                            67.0317E-06     114.656E-06
      At Element                            2640            2640
            Node                             566             566

  Maximum                                1.61063         1.67967
      At Element                            1073            1768
            Node                             317              16

           Total                     1.53615E+03     1.58479E+03


Field Output reported at element nodes for region: CRJ700-1.Region_4
   Computation algorithm: EXTRAPOLATE_COMPUTE_AVERAGE
   Averaged at nodes
   Averaging regions: ODB_REGIONS

   Element Label      Node Label         S.Mises         S.Mises
                                          @Loc 1          @Loc 2
-----------------------------------------------------------------
            1089               1     3.22968E-03     3.64031E-03
             545               1     3.22968E-03     3.64031E-03
            1688               4     55.6919E-03     75.9590E-03
            1617               4     55.6919E-03     75.9590E-03
            1074               5     10.7265E-03     11.0554E-03
             560               5     10.7265E-03     11.0554E-03
             640               6     71.3107E-06     153.926E-06
             625               7     232.183E-06     286.868E-06
            1673              11         1.37329         1.42516
            1602              11         1.37329         1.42516
            2656              18     125.164E-03     171.432E-03
            1752              18     125.164E-03     171.432E-03
            1737              20         1.54999         1.66619
            2641              20         1.54999         1.66619
            2720              22     155.083E-03     172.319E-03
            2384              22     155.083E-03     172.319E-03
            2369              23         1.04554         1.09504
            2705              23         1.04554         1.09504
            2529              26     28.7481E-03     29.5772E-03
            2915              26     28.7481E-03     29.5772E-03
            2544              30     12.8536E-03     13.7970E-03
            2930              30     12.8536E-03     13.7970E-03
            3010              32     231.758E-06     286.357E-06
            2995              34     71.0490E-06     153.934E-06
            1601              99     35.4928E-03     75.8460E-03
            1617              99     35.4928E-03     75.8460E-03
            1585             100     37.0888E-03     79.2194E-03
            1601             100     37.0888E-03     79.2194E-03
            1585             101     83.2326E-03     89.9879E-03
            1569             101     83.2326E-03     89.9879E-03
            1553             102     131.321E-03     143.131E-03
            1569             102     131.321E-03     143.131E-03
            1537             103     166.301E-03     203.377E-03
            1553             103     166.301E-03     203.377E-03
            1537             104     109.766E-03     139.272E-03
            1521             104     109.766E-03     139.272E-03
            1505             105     26.5645E-03     58.9373E-03
            1521             105     26.5645E-03     58.9373E-03
            1489             106     32.7117E-03     56.6987E-03
            1505             106     32.7117E-03     56.6987E-03
            1473             107     66.9073E-03     75.4738E-03
            1489             107     66.9073E-03     75.4738E-03
            1457             108     102.137E-03     102.596E-03
            1473             108     102.137E-03     102.596E-03
            1457             109     140.124E-03     147.617E-03
            1441             109     140.124E-03     147.617E-03
            1441             110     164.850E-03     197.736E-03
            1425             110     164.850E-03     197.736E-03
            1425             111     93.4805E-03     122.786E-03
            1409             111     93.4805E-03     122.786E-03
            1409             112     21.6885E-03     38.1587E-03
            1393             112     21.6885E-03     38.1587E-03
            1393             113     44.0367E-03     48.1118E-03
            1377             113     44.0367E-03     48.1118E-03
            1361             114     70.7089E-03     70.5698E-03
            1377             114     70.7089E-03     70.5698E-03
            1345             115     96.5592E-03     92.1604E-03
            1361             115     96.5592E-03     92.1604E-03
            1345             116     123.920E-03     126.022E-03
            1329             116     123.920E-03     126.022E-03
            1329             117     139.550E-03     164.774E-03
            1313             117     139.550E-03     164.774E-03
            1313             118     85.2571E-03     108.620E-03
            1297             118     85.2571E-03     108.620E-03
            1281             119     41.6507E-03     44.2408E-03
            1297             119     41.6507E-03     44.2408E-03
            1281             120     63.2635E-03     57.3838E-03
            1265             120     63.2635E-03     57.3838E-03
            1249             121     80.9707E-03     71.7089E-03
            1265             121     80.9707E-03     71.7089E-03
            1249             122     98.9778E-03     94.6836E-03
            1233             122     98.9778E-03     94.6836E-03
            1233             123     107.080E-03     122.165E-03
            1217             123     107.080E-03     122.165E-03
            1217             124     78.9837E-03     96.6780E-03
            1201             124     78.9837E-03     96.6780E-03
            1185             125     59.6544E-03     64.9445E-03
            1201             125     59.6544E-03     64.9445E-03
            1185             126     73.2703E-03     64.4785E-03
            1169             126     73.2703E-03     64.4785E-03
            1153             127     80.0753E-03     71.0777E-03
            1169             127     80.0753E-03     71.0777E-03
            1137             128     86.8681E-03     77.2979E-03
            1153             128     86.8681E-03     77.2979E-03
            1137             129     94.1509E-03     87.9563E-03
            1121             129     94.1509E-03     87.9563E-03
            1121             130     92.5244E-03     104.574E-03
            1105             130     92.5244E-03     104.574E-03
            1105             131     47.3445E-03     57.6636E-03
            1089             131     47.3445E-03     57.6636E-03
             546             132     3.28016E-03     3.69391E-03
            1088             132     3.28016E-03     3.69391E-03
             545             132     3.28016E-03     3.69391E-03
            1089             132     3.28016E-03     3.69391E-03
             546             133     3.44009E-03     3.85962E-03
            1087             133     3.44009E-03     3.85962E-03
             547             133     3.44009E-03     3.85962E-03
            1088             133     3.44009E-03     3.85962E-03
            1087             134     3.70968E-03     4.13147E-03
             547             134     3.70968E-03     4.13147E-03
            1086             134     3.70968E-03     4.13147E-03
             548             134     3.70968E-03     4.13147E-03
            1086             135     4.07149E-03     4.48781E-03
             549             135     4.07149E-03     4.48781E-03
            1085             135     4.07149E-03     4.48781E-03
             548             135     4.07149E-03     4.48781E-03
            1085             136     4.50344E-03     4.90935E-03
            1084             136     4.50344E-03     4.90935E-03
             549             136     4.50344E-03     4.90935E-03
             550             136     4.50344E-03     4.90935E-03
             551             137     4.98715E-03     5.38093E-03
             550             137     4.98715E-03     5.38093E-03
            1083             137     4.98715E-03     5.38093E-03
            1084             137     4.98715E-03     5.38093E-03
             551             138     5.50920E-03     5.89004E-03
            1082             138     5.50920E-03     5.89004E-03
             552             138     5.50920E-03     5.89004E-03
            1083             138     5.50920E-03     5.89004E-03
            1082             139     6.05960E-03     6.42809E-03
            1081             139     6.05960E-03     6.42809E-03
             552             139     6.05960E-03     6.42809E-03
             553             139     6.05960E-03     6.42809E-03
             554             140     6.63083E-03     6.98786E-03
            1080             140     6.63083E-03     6.98786E-03
            1081             140     6.63083E-03     6.98786E-03
             553             140     6.63083E-03     6.98786E-03
             555             141     7.21832E-03     7.56465E-03
            1079             141     7.21832E-03     7.56465E-03
            1080             141     7.21832E-03     7.56465E-03
             554             141     7.21832E-03     7.56465E-03
            1079             142     7.81706E-03     8.15421E-03
            1078             142     7.81706E-03     8.15421E-03
             556             142     7.81706E-03     8.15421E-03
             555             142     7.81706E-03     8.15421E-03
             556             143     8.42602E-03     8.75458E-03
             557             143     8.42602E-03     8.75458E-03
            1078             143     8.42602E-03     8.75458E-03
            1077             143     8.42602E-03     8.75458E-03
            1076             144     9.04439E-03     9.36618E-03
            1077             144     9.04439E-03     9.36618E-03
             557             144     9.04439E-03     9.36618E-03
             558             144     9.04439E-03     9.36618E-03
             558             145     9.67845E-03     9.99596E-03
             559             145     9.67845E-03     9.99596E-03
            1076             145     9.67845E-03     9.99596E-03
            1075             145     9.67845E-03     9.99596E-03
             559             146     10.3645E-03     10.6865E-03
            1075             146     10.3645E-03     10.6865E-03
             560             146     10.3645E-03     10.6865E-03
            1074             146     10.3645E-03     10.6865E-03
             576             147     494.991E-06     520.447E-06
             560             147     494.991E-06     520.447E-06
             592             148     375.069E-06     372.493E-06
             576             148     375.069E-06     372.493E-06
             608             149     248.745E-06     252.106E-06
             592             149     248.745E-06     252.106E-06
             624             150     135.873E-06     127.256E-06
             608             150     135.873E-06     127.256E-06
             624             151     67.8608E-06     115.274E-06
             640             151     67.8608E-06     115.274E-06
             640             152     131.584E-06     146.924E-06
             639             152     131.584E-06     146.924E-06
             639             153     215.524E-06     172.427E-06
             638             153     215.524E-06     172.427E-06
             638             154     265.080E-06     228.281E-06
             637             154     265.080E-06     228.281E-06
             636             155     293.861E-06     258.825E-06
             637             155     293.861E-06     258.825E-06
             636             156     302.659E-06     271.113E-06
             635             156     302.659E-06     271.113E-06
             635             157     305.335E-06     274.615E-06
             634             157     305.335E-06     274.615E-06
             634             158     301.935E-06     273.658E-06
             633             158     301.935E-06     273.658E-06
             633             159     298.091E-06     271.689E-06
             632             159     298.091E-06     271.689E-06
             631             160     292.775E-06     268.615E-06
             632             160     292.775E-06     268.615E-06
             631             161     287.718E-06     266.383E-06
             630             161     287.718E-06     266.383E-06
             629             162     282.721E-06     263.863E-06
             630             162     282.721E-06     263.863E-06
             628             163     277.650E-06     262.694E-06
             629             163     277.650E-06     262.694E-06
             627             164     272.406E-06     261.654E-06
             628             164     272.406E-06     261.654E-06
             627             165     266.454E-06     264.211E-06
             626             165     266.454E-06     264.211E-06
             625             166     247.219E-06     277.135E-06
             626             166     247.219E-06     277.135E-06
             625             167     250.985E-06     274.185E-06
             609             167     250.985E-06     274.185E-06
             609             168     264.515E-06     242.251E-06
             593             168     264.515E-06     242.251E-06
             577             169     254.095E-06     221.310E-06
             593             169     254.095E-06     221.310E-06
             561             170     246.111E-06     221.858E-06
             577             170     246.111E-06     221.858E-06
             561             171     217.045E-06     231.991E-06
             545             171     217.045E-06     231.991E-06
            1074             194     46.6539E-03     56.4395E-03
            1090             194     46.6539E-03     56.4395E-03
            1090             195     92.8743E-03     102.060E-03
            1106             195     92.8743E-03     102.060E-03
            1106             196     140.475E-03     137.234E-03
            1122             196     140.475E-03     137.234E-03
            1122             197     193.863E-03     189.108E-03
            1138             197     193.863E-03     189.108E-03
            1154             198     241.610E-03     248.346E-03
            1138             198     241.610E-03     248.346E-03
            1154             199     301.503E-03     298.207E-03
            1170             199     301.503E-03     298.207E-03
            1186             200     352.202E-03     367.607E-03
            1170             200     352.202E-03     367.607E-03
            1186             201     335.498E-03     347.103E-03
            1202             201     335.498E-03     347.103E-03
            1218             202     338.136E-03     327.259E-03
            1202             202     338.136E-03     327.259E-03
            1218             203     412.487E-03     414.243E-03
            1234             203     412.487E-03     414.243E-03
            1234             204     475.171E-03     486.694E-03
            1250             204     475.171E-03     486.694E-03
            1250             205     538.671E-03     539.144E-03
            1266             205     538.671E-03     539.144E-03
            1282             206     590.628E-03     606.384E-03
            1266             206     590.628E-03     606.384E-03
            1282             207     573.060E-03     589.517E-03
            1298             207     573.060E-03     589.517E-03
            1298             208     586.797E-03     571.991E-03
            1314             208     586.797E-03     571.991E-03
            1314             209     658.704E-03     667.050E-03
            1330             209     658.704E-03     667.050E-03
            1330             210     728.265E-03     734.340E-03
            1346             210     728.265E-03     734.340E-03
            1346             211     781.325E-03     799.179E-03
            1362             211     781.325E-03     799.179E-03
            1362             212     842.019E-03     845.518E-03
            1378             212     842.019E-03     845.518E-03
            1394             213     887.686E-03     903.152E-03
            1378             213     887.686E-03     903.152E-03
            1394             214     859.017E-03     882.428E-03
            1410             214     859.017E-03     882.428E-03
            1410             215     876.221E-03     861.261E-03
            1426             215     876.221E-03     861.261E-03
            1426             216     952.371E-03     963.830E-03
            1442             216     952.371E-03     963.830E-03
            1458             217         1.02361         1.03494
            1442             217         1.02361         1.03494
            1458             218         1.07668         1.09974
            1474             218         1.07668         1.09974
            1490             219         1.13569         1.14219
            1474             219         1.13569         1.14219
            1506             220         1.17687         1.19230
            1490             220         1.17687         1.19230
            1506             221         1.14150         1.17190
            1522             221         1.14150         1.17190
            1522             222         1.16050         1.15258
            1538             222         1.16050         1.15258
            1554             223         1.25064         1.25804
            1538             223         1.25064         1.25804
            1570             224         1.31277         1.34781
            1554             224         1.31277         1.34781
            1586             225         1.37704         1.38282
            1570             225         1.37704         1.38282
            1602             226         1.41257         1.43177
            1586             226         1.41257         1.43177
            1752             339     89.4992E-03     134.849E-03
            1736             339     89.4992E-03     134.849E-03
            1736             340     54.9697E-03     119.394E-03
            1720             340     54.9697E-03     119.394E-03
            1720             341     77.3111E-03     117.027E-03
            1704             341     77.3111E-03     117.027E-03
            1688             342     77.8363E-03     96.2245E-03
            1704             342     77.8363E-03     96.2245E-03
            1688             343     89.7571E-03     114.769E-03
            1687             343     89.7571E-03     114.769E-03
            1616             343     89.7571E-03     114.769E-03
            1617             343     89.7571E-03     114.769E-03
            1615             344     163.139E-03     195.557E-03
            1616             344     163.139E-03     195.557E-03
            1687             344     163.139E-03     195.557E-03
            1686             344     163.139E-03     195.557E-03
            1686             345     243.705E-03     279.523E-03
            1685             345     243.705E-03     279.523E-03
            1614             345     243.705E-03     279.523E-03
            1615             345     243.705E-03     279.523E-03
            1613             346     326.592E-03     363.810E-03
            1685             346     326.592E-03     363.810E-03
            1684             346     326.592E-03     363.810E-03
            1614             346     326.592E-03     363.810E-03
            1684             347     410.332E-03     447.975E-03
            1683             347     410.332E-03     447.975E-03
            1612             347     410.332E-03     447.975E-03
            1613             347     410.332E-03     447.975E-03
            1683             348     494.238E-03     531.955E-03
            1682             348     494.238E-03     531.955E-03
            1612             348     494.238E-03     531.955E-03
            1611             348     494.238E-03     531.955E-03
            1611             349     578.212E-03     615.736E-03
            1682             349     578.212E-03     615.736E-03
            1610             349     578.212E-03     615.736E-03
            1681             349     578.212E-03     615.736E-03
            1609             350     661.716E-03     699.298E-03
            1680             350     661.716E-03     699.298E-03
            1681             350     661.716E-03     699.298E-03
            1610             350     661.716E-03     699.298E-03
            1679             351     745.067E-03     782.326E-03
            1680             351     745.067E-03     782.326E-03
            1608             351     745.067E-03     782.326E-03
            1609             351     745.067E-03     782.326E-03
            1678             352     827.756E-03     864.862E-03
            1608             352     827.756E-03     864.862E-03
            1679             352     827.756E-03     864.862E-03
            1607             352     827.756E-03     864.862E-03
            1678             353     910.834E-03     946.716E-03
            1606             353     910.834E-03     946.716E-03
            1607             353     910.834E-03     946.716E-03
            1677             353     910.834E-03     946.716E-03
            1676             354     993.849E-03         1.02843
            1606             354     993.849E-03         1.02843
            1605             354     993.849E-03         1.02843
            1677             354     993.849E-03         1.02843
            1676             355         1.08091         1.11251
            1675             355         1.08091         1.11251
            1605             355         1.08091         1.11251
            1604             355         1.08091         1.11251
            1675             356         1.17211         1.20299
            1603             356         1.17211         1.20299
            1604             356         1.17211         1.20299
            1674             356         1.17211         1.20299
            1674             357         1.29507         1.33791
            1602             357         1.29507         1.33791
            1673             357         1.29507         1.33791
            1603             357         1.29507         1.33791
            2656             374     144.911E-03     207.520E-03
            2655             374     144.911E-03     207.520E-03
            1752             374     144.911E-03     207.520E-03
            1751             374     144.911E-03     207.520E-03
            1751             375     202.437E-03     287.058E-03
            1750             375     202.437E-03     287.058E-03
            2654             375     202.437E-03     287.058E-03
            2655             375     202.437E-03     287.058E-03
            1750             376     283.233E-03     375.427E-03
            1749             376     283.233E-03     375.427E-03
            2654             376     283.233E-03     375.427E-03
            2653             376     283.233E-03     375.427E-03
            2653             377     371.253E-03     466.765E-03
            1749             377     371.253E-03     466.765E-03
            1748             377     371.253E-03     466.765E-03
            2652             377     371.253E-03     466.765E-03
            2651             378     462.377E-03     559.476E-03
            2652             378     462.377E-03     559.476E-03
            1747             378     462.377E-03     559.476E-03
            1748             378     462.377E-03     559.476E-03
            1747             379     554.367E-03     652.946E-03
            2650             379     554.367E-03     652.946E-03
            2651             379     554.367E-03     652.946E-03
            1746             379     554.367E-03     652.946E-03
            1746             380     647.120E-03     746.571E-03
            2650             380     647.120E-03     746.571E-03
            1745             380     647.120E-03     746.571E-03
            2649             380     647.120E-03     746.571E-03
            1745             381     739.584E-03     840.588E-03
            2648             381     739.584E-03     840.588E-03
            1744             381     739.584E-03     840.588E-03
            2649             381     739.584E-03     840.588E-03
            1744             382     832.669E-03     933.895E-03
            2648             382     832.669E-03     933.895E-03
            1743             382     832.669E-03     933.895E-03
            2647             382     832.669E-03     933.895E-03
            2646             383     924.269E-03         1.02755
            2647             383     924.269E-03         1.02755
            1743             383     924.269E-03         1.02755
            1742             383     924.269E-03         1.02755
            1741             384         1.01680         1.11930
            2645             384         1.01680         1.11930
            1742             384         1.01680         1.11930
            2646             384         1.01680         1.11930
            1740             385         1.10606         1.21078
            2645             385         1.10606         1.21078
            1741             385         1.10606         1.21078
            2644             385         1.10606         1.21078
            1740             386         1.20006         1.30215
            2643             386         1.20006         1.30215
            1739             386         1.20006         1.30215
            2644             386         1.20006         1.30215
            1739             387         1.28471         1.38747
            2643             387         1.28471         1.38747
            1738             387         1.28471         1.38747
            2642             387         1.28471         1.38747
            2642             388         1.43308         1.54764
            1737             388         1.43308         1.54764
            2641             388         1.43308         1.54764
            1738             388         1.43308         1.54764
            1737             389         1.59313         1.62713
            1721             389         1.59313         1.62713
            1705             390         1.55635         1.56115
            1721             390         1.55635         1.56115
            1689             391         1.45975         1.46949
            1705             391         1.45975         1.46949
            1673             392         1.37653         1.38502
            1689             392         1.37653         1.38502
            2704             412     196.958E-03     202.682E-03
            2720             412     196.958E-03     202.682E-03
            2688             413     141.639E-03     169.831E-03
            2704             413     141.639E-03     169.831E-03
            2672             414     148.321E-03     153.722E-03
            2688             414     148.321E-03     153.722E-03
            2672             415     163.794E-03     182.111E-03
            2656             415     163.794E-03     182.111E-03
            2657             420         1.44568         1.46799
            2641             420         1.44568         1.46799
            2657             421         1.37775         1.39788
            2673             421         1.37775         1.39788
            2689             422         1.32356         1.37488
            2673             422         1.32356         1.37488
            2705             423         1.14864         1.10567
            2689             423         1.14864         1.10567
            2369             444         1.00494         1.05771
            2385             444         1.00494         1.05771
            2385             445     847.561E-03     796.652E-03
            2401             445     847.561E-03     796.652E-03
            2401             446     803.588E-03     839.521E-03
            2417             446     803.588E-03     839.521E-03
            2433             447     835.570E-03     873.989E-03
            2417             447     835.570E-03     873.989E-03
            2433             448     718.236E-03     709.519E-03
            2449             448     718.236E-03     709.519E-03
            2449             449     578.019E-03     593.562E-03
            2465             449     578.019E-03     593.562E-03
            2481             450     467.238E-03     455.259E-03
            2465             450     467.238E-03     455.259E-03
            2481             451     343.618E-03     334.739E-03
            2497             451     343.618E-03     334.739E-03
            2513             452     232.864E-03     254.294E-03
            2497             452     232.864E-03     254.294E-03
            2513             453     120.812E-03     144.460E-03
            2529             453     120.812E-03     144.460E-03
            2370             507         1.01236         1.05003
            2705             507         1.01236         1.05003
            2369             507         1.01236         1.05003
            2706             507         1.01236         1.05003
            2707             508     960.501E-03     983.644E-03
            2706             508     960.501E-03     983.644E-03
            2370             508     960.501E-03     983.644E-03
            2371             508     960.501E-03     983.644E-03
            2707             509     906.350E-03     928.433E-03
            2708             509     906.350E-03     928.433E-03
            2372             509     906.350E-03     928.433E-03
            2371             509     906.350E-03     928.433E-03
            2372             510     839.348E-03     863.652E-03
            2708             510     839.348E-03     863.652E-03
            2373             510     839.348E-03     863.652E-03
            2709             510     839.348E-03     863.652E-03
            2374             511     774.403E-03     798.944E-03
            2710             511     774.403E-03     798.944E-03
            2373             511     774.403E-03     798.944E-03
            2709             511     774.403E-03     798.944E-03
            2710             512     708.084E-03     732.601E-03
            2374             512     708.084E-03     732.601E-03
            2375             512     708.084E-03     732.601E-03
            2711             512     708.084E-03     732.601E-03
            2375             513     642.060E-03     666.657E-03
            2376             513     642.060E-03     666.657E-03
            2712             513     642.060E-03     666.657E-03
            2711             513     642.060E-03     666.657E-03
            2712             514     575.921E-03     600.559E-03
            2376             514     575.921E-03     600.559E-03
            2377             514     575.921E-03     600.559E-03
            2713             514     575.921E-03     600.559E-03
            2713             515     510.346E-03     535.059E-03
            2378             515     510.346E-03     535.059E-03
            2714             515     510.346E-03     535.059E-03
            2377             515     510.346E-03     535.059E-03
            2379             516     445.531E-03     470.240E-03
            2714             516     445.531E-03     470.240E-03
            2715             516     445.531E-03     470.240E-03
            2378             516     445.531E-03     470.240E-03
            2380             517     382.109E-03     406.705E-03
            2715             517     382.109E-03     406.705E-03
            2716             517     382.109E-03     406.705E-03
            2379             517     382.109E-03     406.705E-03
            2717             518     320.816E-03     345.122E-03
            2716             518     320.816E-03     345.122E-03
            2380             518     320.816E-03     345.122E-03
            2381             518     320.816E-03     345.122E-03
            2382             519     263.151E-03     287.580E-03
            2717             519     263.151E-03     287.580E-03
            2718             519     263.151E-03     287.580E-03
            2381             519     263.151E-03     287.580E-03
            2382             520     215.070E-03     238.122E-03
            2718             520     215.070E-03     238.122E-03
            2719             520     215.070E-03     238.122E-03
            2383             520     215.070E-03     238.122E-03
            2719             521     174.804E-03     194.214E-03
            2720             521     174.804E-03     194.214E-03
            2384             521     174.804E-03     194.214E-03
            2383             521     174.804E-03     194.214E-03
            2384             522     147.045E-03     165.931E-03
            2400             522     147.045E-03     165.931E-03
            2416             523     187.634E-03     187.331E-03
            2400             523     187.634E-03     187.331E-03
            2432             524     148.733E-03     170.496E-03
            2416             524     148.733E-03     170.496E-03
            2448             525     136.820E-03     157.467E-03
            2432             525     136.820E-03     157.467E-03
            2464             526     174.190E-03     153.458E-03
            2448             526     174.190E-03     153.458E-03
            2464             527     189.530E-03     168.653E-03
            2480             527     189.530E-03     168.653E-03
            2496             528     205.474E-03     182.198E-03
            2480             528     205.474E-03     182.198E-03
            2496             529     221.998E-03     206.696E-03
            2512             529     221.998E-03     206.696E-03
            2528             530     215.167E-03     245.833E-03
            2512             530     215.167E-03     245.833E-03
            2544             531     114.322E-03     140.991E-03
            2528             531     114.322E-03     140.991E-03
            2929             532     12.9241E-03     13.8805E-03
            2930             532     12.9241E-03     13.8805E-03
            2543             532     12.9241E-03     13.8805E-03
            2544             532     12.9241E-03     13.8805E-03
            2543             533     13.1690E-03     14.1505E-03
            2542             533     13.1690E-03     14.1505E-03
            2928             533     13.1690E-03     14.1505E-03
            2929             533     13.1690E-03     14.1505E-03
            2542             534     13.6161E-03     14.6171E-03
            2928             534     13.6161E-03     14.6171E-03
            2541             534     13.6161E-03     14.6171E-03
            2927             534     13.6161E-03     14.6171E-03
            2541             535     14.2516E-03     15.2595E-03
            2927             535     14.2516E-03     15.2595E-03
            2926             535     14.2516E-03     15.2595E-03
            2540             535     14.2516E-03     15.2595E-03
            2926             536     15.0521E-03     16.0559E-03
            2539             536     15.0521E-03     16.0559E-03
            2925             536     15.0521E-03     16.0559E-03
            2540             536     15.0521E-03     16.0559E-03
            2538             537     15.9928E-03     16.9849E-03
            2925             537     15.9928E-03     16.9849E-03
            2924             537     15.9928E-03     16.9849E-03
            2539             537     15.9928E-03     16.9849E-03
            2924             538     17.0509E-03     18.0258E-03
            2538             538     17.0509E-03     18.0258E-03
            2923             538     17.0509E-03     18.0258E-03
            2537             538     17.0509E-03     18.0258E-03
            2536             539     18.2060E-03     19.1607E-03
            2923             539     18.2060E-03     19.1607E-03
            2922             539     18.2060E-03     19.1607E-03
            2537             539     18.2060E-03     19.1607E-03
            2536             540     19.4403E-03     20.3735E-03
            2535             540     19.4403E-03     20.3735E-03
            2922             540     19.4403E-03     20.3735E-03
            2921             540     19.4403E-03     20.3735E-03
            2921             541     20.7402E-03     21.6512E-03
            2920             541     20.7402E-03     21.6512E-03
            2534             541     20.7402E-03     21.6512E-03
            2535             541     20.7402E-03     21.6512E-03
            2534             542     22.0926E-03     22.9824E-03
            2533             542     22.0926E-03     22.9824E-03
            2920             542     22.0926E-03     22.9824E-03
            2919             542     22.0926E-03     22.9824E-03
            2532             543     23.4898E-03     24.3588E-03
            2533             543     23.4898E-03     24.3588E-03
            2919             543     23.4898E-03     24.3588E-03
            2918             543     23.4898E-03     24.3588E-03
            2531             544     24.9256E-03     25.7757E-03
            2532             544     24.9256E-03     25.7757E-03
            2918             544     24.9256E-03     25.7757E-03
            2917             544     24.9256E-03     25.7757E-03
            2530             545     26.4014E-03     27.2356E-03
            2531             545     26.4014E-03     27.2356E-03
            2917             545     26.4014E-03     27.2356E-03
            2916             545     26.4014E-03     27.2356E-03
            2530             546     27.9500E-03     28.7775E-03
            2916             546     27.9500E-03     28.7775E-03
            2915             546     27.9500E-03     28.7775E-03
            2529             546     27.9500E-03     28.7775E-03
            3010             582     250.542E-06     273.769E-06
            2994             582     250.542E-06     273.769E-06
            2978             583     264.202E-06     241.928E-06
            2994             583     264.202E-06     241.928E-06
            2978             584     253.983E-06     220.988E-06
            2962             584     253.983E-06     220.988E-06
            2946             585     246.029E-06     221.757E-06
            2962             585     246.029E-06     221.757E-06
            2930             586     217.022E-06     232.095E-06
            2946             586     217.022E-06     232.095E-06
            2979             596     67.0317E-06     114.656E-06
            2995             596     67.0317E-06     114.656E-06
            2979             597     134.296E-06     125.806E-06
            2963             597     134.296E-06     125.806E-06
            2947             598     246.838E-06     250.185E-06
            2963             598     246.838E-06     250.185E-06
            2947             599     372.755E-06     370.147E-06
            2931             599     372.755E-06     370.147E-06
            2915             600     492.085E-06     517.720E-06
            2931             600     492.085E-06     517.720E-06
            3009             616     246.809E-06     276.605E-06
            3010             616     246.809E-06     276.605E-06
            3008             617     266.028E-06     263.675E-06
            3009             617     266.028E-06     263.675E-06
            3007             618     271.934E-06     261.127E-06
            3008             618     271.934E-06     261.127E-06
            3006             619     277.152E-06     262.155E-06
            3007             619     277.152E-06     262.155E-06
            3006             620     282.187E-06     263.295E-06
            3005             620     282.187E-06     263.295E-06
            3005             621     287.154E-06     265.781E-06
            3004             621     287.154E-06     265.781E-06
            3003             622     292.186E-06     267.981E-06
            3004             622     292.186E-06     267.981E-06
            3002             623     297.490E-06     271.037E-06
            3003             623     297.490E-06     271.037E-06
            3002             624     301.341E-06     273.019E-06
            3001             624     301.341E-06     273.019E-06
            3001             625     304.798E-06     274.023E-06
            3000             625     304.798E-06     274.023E-06
            3000             626     302.251E-06     270.661E-06
            2999             626     302.251E-06     270.661E-06
            2998             627     293.660E-06     258.593E-06
            2999             627     293.660E-06     258.593E-06
            2997             628     265.126E-06     228.339E-06
            2998             628     265.126E-06     228.339E-06
            2996             629     215.924E-06     172.867E-06
            2997             629     215.924E-06     172.867E-06
            2995             630     131.776E-06     147.249E-06
            2996             630     131.776E-06     147.249E-06
             545            1130     215.865E-06     233.327E-06
             562            1130     215.865E-06     233.327E-06
             561            1130     215.865E-06     233.327E-06
             546            1130     215.865E-06     233.327E-06
             546            1131     216.670E-06     233.758E-06
             562            1131     216.670E-06     233.758E-06
             563            1131     216.670E-06     233.758E-06
             547            1131     216.670E-06     233.758E-06
             547            1132     219.816E-06     235.552E-06
             563            1132     219.816E-06     235.552E-06
             564            1132     219.816E-06     235.552E-06
             548            1132     219.816E-06     235.552E-06
             565            1133     221.836E-06     241.759E-06
             549            1133     221.836E-06     241.759E-06
             564            1133     221.836E-06     241.759E-06
             548            1133     221.836E-06     241.759E-06
             565            1134     224.624E-06     248.346E-06
             566            1134     224.624E-06     248.346E-06
             549            1134     224.624E-06     248.346E-06
             550            1134     224.624E-06     248.346E-06
             550            1135     229.065E-06     255.507E-06
             566            1135     229.065E-06     255.507E-06
             567            1135     229.065E-06     255.507E-06
             551            1135     229.065E-06     255.507E-06
             567            1136     234.622E-06     263.469E-06
             568            1136     234.622E-06     263.469E-06
             552            1136     234.622E-06     263.469E-06
             551            1136     234.622E-06     263.469E-06
             552            1137     241.572E-06     272.130E-06
             569            1137     241.572E-06     272.130E-06
             568            1137     241.572E-06     272.130E-06
             553            1137     241.572E-06     272.130E-06
             554            1138     249.260E-06     281.186E-06
             569            1138     249.260E-06     281.186E-06
             570            1138     249.260E-06     281.186E-06
             553            1138     249.260E-06     281.186E-06
             555            1139     257.770E-06     290.761E-06
             554            1139     257.770E-06     290.761E-06
             570            1139     257.770E-06     290.761E-06
             571            1139     257.770E-06     290.761E-06
             571            1140     266.060E-06     299.963E-06
             556            1140     266.060E-06     299.963E-06
             572            1140     266.060E-06     299.963E-06
             555            1140     266.060E-06     299.963E-06
             556            1141     274.743E-06     310.140E-06
             557            1141     274.743E-06     310.140E-06
             572            1141     274.743E-06     310.140E-06
             573            1141     274.743E-06     310.140E-06
             557            1142     285.300E-06     321.929E-06
             573            1142     285.300E-06     321.929E-06
             558            1142     285.300E-06     321.929E-06
             574            1142     285.300E-06     321.929E-06
             559            1143     320.127E-06     356.861E-06
             558            1143     320.127E-06     356.861E-06
             575            1143     320.127E-06     356.861E-06
             574            1143     320.127E-06     356.861E-06
             576            1144     422.255E-06     453.363E-06
             575            1144     422.255E-06     453.363E-06
             560            1144     422.255E-06     453.363E-06
             559            1144     422.255E-06     453.363E-06
             561            1145     239.791E-06     227.685E-06
             562            1145     239.791E-06     227.685E-06
             577            1145     239.791E-06     227.685E-06
             578            1145     239.791E-06     227.685E-06
             563            1146     231.771E-06     236.611E-06
             578            1146     231.771E-06     236.611E-06
             579            1146     231.771E-06     236.611E-06
             562            1146     231.771E-06     236.611E-06
             564            1147     230.908E-06     241.679E-06
             580            1147     230.908E-06     241.679E-06
             579            1147     230.908E-06     241.679E-06
             563            1147     230.908E-06     241.679E-06
             581            1148     232.625E-06     246.119E-06
             564            1148     232.625E-06     246.119E-06
             580            1148     232.625E-06     246.119E-06
             565            1148     232.625E-06     246.119E-06
             566            1149     235.952E-06     251.422E-06
             565            1149     235.952E-06     251.422E-06
             581            1149     235.952E-06     251.422E-06
             582            1149     235.952E-06     251.422E-06
             567            1150     240.849E-06     257.523E-06
             566            1150     240.849E-06     257.523E-06
             583            1150     240.849E-06     257.523E-06
             582            1150     240.849E-06     257.523E-06
             568            1151     246.911E-06     264.874E-06
             567            1151     246.911E-06     264.874E-06
             583            1151     246.911E-06     264.874E-06
             584            1151     246.911E-06     264.874E-06
             584            1152     254.165E-06     273.077E-06
             568            1152     254.165E-06     273.077E-06
             585            1152     254.165E-06     273.077E-06
             569            1152     254.165E-06     273.077E-06
             570            1153     262.967E-06     282.472E-06
             586            1153     262.967E-06     282.472E-06
             569            1153     262.967E-06     282.472E-06
             585            1153     262.967E-06     282.472E-06
             571            1154     272.525E-06     292.882E-06
             586            1154     272.525E-06     292.882E-06
             587            1154     272.525E-06     292.882E-06
             570            1154     272.525E-06     292.882E-06
             588            1155     283.925E-06     304.308E-06
             571            1155     283.925E-06     304.308E-06
             587            1155     283.925E-06     304.308E-06
             572            1155     283.925E-06     304.308E-06
             572            1156     294.049E-06     316.042E-06
             589            1156     294.049E-06     316.042E-06
             588            1156     294.049E-06     316.042E-06
             573            1156     294.049E-06     316.042E-06
             590            1157     302.794E-06     325.393E-06
             574            1157     302.794E-06     325.393E-06
             573            1157     302.794E-06     325.393E-06
             589            1157     302.794E-06     325.393E-06
             574            1158     320.496E-06     338.173E-06
             591            1158     320.496E-06     338.173E-06
             575            1158     320.496E-06     338.173E-06
             590            1158     320.496E-06     338.173E-06
             591            1159     353.825E-06     359.770E-06
             592            1159     353.825E-06     359.770E-06
             575            1159     353.825E-06     359.770E-06
             576            1159     353.825E-06     359.770E-06
             578            1160     253.281E-06     227.150E-06
             577            1160     253.281E-06     227.150E-06
             593            1160     253.281E-06     227.150E-06
             594            1160     253.281E-06     227.150E-06
             594            1161     247.601E-06     239.922E-06
             578            1161     247.601E-06     239.922E-06
             595            1161     247.601E-06     239.922E-06
             579            1161     247.601E-06     239.922E-06
             596            1162     242.116E-06     248.212E-06
             579            1162     242.116E-06     248.212E-06
             580            1162     242.116E-06     248.212E-06
             595            1162     242.116E-06     248.212E-06
             581            1163     244.001E-06     250.752E-06
             597            1163     244.001E-06     250.752E-06
             596            1163     244.001E-06     250.752E-06
             580            1163     244.001E-06     250.752E-06
             582            1164     248.252E-06     254.405E-06
             597            1164     248.252E-06     254.405E-06
             598            1164     248.252E-06     254.405E-06
             581            1164     248.252E-06     254.405E-06
             583            1165     253.173E-06     259.674E-06
             582            1165     253.173E-06     259.674E-06
             599            1165     253.173E-06     259.674E-06
             598            1165     253.173E-06     259.674E-06
             600            1166     259.378E-06     265.766E-06
             584            1166     259.378E-06     265.766E-06
             599            1166     259.378E-06     265.766E-06
             583            1166     259.378E-06     265.766E-06
             600            1167     266.763E-06     273.279E-06
             585            1167     266.763E-06     273.279E-06
             601            1167     266.763E-06     273.279E-06
             584            1167     266.763E-06     273.279E-06
             585            1168     275.327E-06     282.035E-06
             601            1168     275.327E-06     282.035E-06
             602            1168     275.327E-06     282.035E-06
             586            1168     275.327E-06     282.035E-06
             586            1169     285.931E-06     292.324E-06
             603            1169     285.931E-06     292.324E-06
             602            1169     285.931E-06     292.324E-06
             587            1169     285.931E-06     292.324E-06
             588            1170     296.954E-06     304.060E-06
             603            1170     296.954E-06     304.060E-06
             604            1170     296.954E-06     304.060E-06
             587            1170     296.954E-06     304.060E-06
             589            1171     308.226E-06     314.578E-06
             605            1171     308.226E-06     314.578E-06
             604            1171     308.226E-06     314.578E-06
             588            1171     308.226E-06     314.578E-06
             605            1172     310.683E-06     319.939E-06
             606            1172     310.683E-06     319.939E-06
             590            1172     310.683E-06     319.939E-06
             589            1172     310.683E-06     319.939E-06
             590            1173     281.062E-06     296.730E-06
             606            1173     281.062E-06     296.730E-06
             591            1173     281.062E-06     296.730E-06
             607            1173     281.062E-06     296.730E-06
             592            1174     252.186E-06     262.398E-06
             608            1174     252.186E-06     262.398E-06
             607            1174     252.186E-06     262.398E-06
             591            1174     252.186E-06     262.398E-06
             610            1175     258.091E-06     247.699E-06
             594            1175     258.091E-06     247.699E-06
             609            1175     258.091E-06     247.699E-06
             593            1175     258.091E-06     247.699E-06
             594            1176     251.457E-06     253.159E-06
             611            1176     251.457E-06     253.159E-06
             595            1176     251.457E-06     253.159E-06
             610            1176     251.457E-06     253.159E-06
             596            1177     253.355E-06     253.400E-06
             595            1177     253.355E-06     253.400E-06
             611            1177     253.355E-06     253.400E-06
             612            1177     253.355E-06     253.400E-06
             613            1178     256.947E-06     255.042E-06
             596            1178     256.947E-06     255.042E-06
             612            1178     256.947E-06     255.042E-06
             597            1178     256.947E-06     255.042E-06
             597            1179     261.176E-06     257.981E-06
             613            1179     261.176E-06     257.981E-06
             614            1179     261.176E-06     257.981E-06
             598            1179     261.176E-06     257.981E-06
             615            1180     266.400E-06     261.736E-06
             614            1180     266.400E-06     261.736E-06
             599            1180     266.400E-06     261.736E-06
             598            1180     266.400E-06     261.736E-06
             616            1181     272.232E-06     266.718E-06
             615            1181     272.232E-06     266.718E-06
             600            1181     272.232E-06     266.718E-06
             599            1181     272.232E-06     266.718E-06
             616            1182     278.907E-06     272.472E-06
             601            1182     278.907E-06     272.472E-06
             617            1182     278.907E-06     272.472E-06
             600            1182     278.907E-06     272.472E-06
             601            1183     286.515E-06     279.333E-06
             602            1183     286.515E-06     279.333E-06
             618            1183     286.515E-06     279.333E-06
             617            1183     286.515E-06     279.333E-06
             602            1184     294.868E-06     287.071E-06
             603            1184     294.868E-06     287.071E-06
             619            1184     294.868E-06     287.071E-06
             618            1184     294.868E-06     287.071E-06
             604            1185     303.533E-06     294.926E-06
             619            1185     303.533E-06     294.926E-06
             620            1185     303.533E-06     294.926E-06
             603            1185     303.533E-06     294.926E-06
             621            1186     309.259E-06     300.277E-06
             605            1186     309.259E-06     300.277E-06
             620            1186     309.259E-06     300.277E-06
             604            1186     309.259E-06     300.277E-06
             606            1187     302.281E-06     294.255E-06
             622            1187     302.281E-06     294.255E-06
             621            1187     302.281E-06     294.255E-06
             605            1187     302.281E-06     294.255E-06
             607            1188     249.824E-06     251.290E-06
             606            1188     249.824E-06     251.290E-06
             622            1188     249.824E-06     251.290E-06
             623            1188     249.824E-06     251.290E-06
             607            1189     170.671E-06     171.489E-06
             623            1189     170.671E-06     171.489E-06
             608            1189     170.671E-06     171.489E-06
             624            1189     170.671E-06     171.489E-06
             625            1190     252.702E-06     270.564E-06
             626            1190     252.702E-06     270.564E-06
             610            1190     252.702E-06     270.564E-06
             609            1190     252.702E-06     270.564E-06
             611            1191     258.556E-06     262.813E-06
             626            1191     258.556E-06     262.813E-06
             627            1191     258.556E-06     262.813E-06
             610            1191     258.556E-06     262.813E-06
             611            1192     265.724E-06     258.740E-06
             627            1192     265.724E-06     258.740E-06
             628            1192     265.724E-06     258.740E-06
             612            1192     265.724E-06     258.740E-06
             628            1193     270.749E-06     259.861E-06
             629            1193     270.749E-06     259.861E-06
             613            1193     270.749E-06     259.861E-06
             612            1193     270.749E-06     259.861E-06
             613            1194     275.279E-06     261.925E-06
             629            1194     275.279E-06     261.925E-06
             630            1194     275.279E-06     261.925E-06
             614            1194     275.279E-06     261.925E-06
             614            1195     280.461E-06     264.572E-06
             615            1195     280.461E-06     264.572E-06
             630            1195     280.461E-06     264.572E-06
             631            1195     280.461E-06     264.572E-06
             632            1196     285.822E-06     267.958E-06
             616            1196     285.822E-06     267.958E-06
             615            1196     285.822E-06     267.958E-06
             631            1196     285.822E-06     267.958E-06
             633            1197     291.426E-06     271.746E-06
             616            1197     291.426E-06     271.746E-06
             617            1197     291.426E-06     271.746E-06
             632            1197     291.426E-06     271.746E-06
             633            1198     296.993E-06     275.578E-06
             618            1198     296.993E-06     275.578E-06
             617            1198     296.993E-06     275.578E-06
             634            1198     296.993E-06     275.578E-06
             618            1199     301.551E-06     278.889E-06
             634            1199     301.551E-06     278.889E-06
             619            1199     301.551E-06     278.889E-06
             635            1199     301.551E-06     278.889E-06
             619            1200     304.160E-06     279.557E-06
             620            1200     304.160E-06     279.557E-06
             636            1200     304.160E-06     279.557E-06
             635            1200     304.160E-06     279.557E-06
             637            1201     299.585E-06     274.146E-06
             621            1201     299.585E-06     274.146E-06
             620            1201     299.585E-06     274.146E-06
             636            1201     299.585E-06     274.146E-06
             638            1202     279.742E-06     252.154E-06
             637            1202     279.742E-06     252.154E-06
             622            1202     279.742E-06     252.154E-06
             621            1202     279.742E-06     252.154E-06
             639            1203     230.402E-06     200.695E-06
             622            1203     230.402E-06     200.695E-06
             638            1203     230.402E-06     200.695E-06
             623            1203     230.402E-06     200.695E-06
             624            1204     131.732E-06     140.974E-06
             623            1204     131.732E-06     140.974E-06
             639            1204     131.732E-06     140.974E-06
             640            1204     131.732E-06     140.974E-06
            1090            1511     56.0240E-03     53.2470E-03
            1091            1511     56.0240E-03     53.2470E-03
            1075            1511     56.0240E-03     53.2470E-03
            1074            1511     56.0240E-03     53.2470E-03
            1092            1512     70.9735E-03     57.1609E-03
            1091            1512     70.9735E-03     57.1609E-03
            1075            1512     70.9735E-03     57.1609E-03
            1076            1512     70.9735E-03     57.1609E-03
            1076            1513     80.8781E-03     69.0330E-03
            1092            1513     80.8781E-03     69.0330E-03
            1093            1513     80.8781E-03     69.0330E-03
            1077            1513     80.8781E-03     69.0330E-03
            1078            1514     85.5563E-03     74.9921E-03
            1094            1514     85.5563E-03     74.9921E-03
            1077            1514     85.5563E-03     74.9921E-03
            1093            1514     85.5563E-03     74.9921E-03
            1078            1515     85.5601E-03     75.9972E-03
            1094            1515     85.5601E-03     75.9972E-03
            1095            1515     85.5601E-03     75.9972E-03
            1079            1515     85.5601E-03     75.9972E-03
            1080            1516     83.7320E-03     74.8840E-03
            1096            1516     83.7320E-03     74.8840E-03
            1095            1516     83.7320E-03     74.8840E-03
            1079            1516     83.7320E-03     74.8840E-03
            1096            1517     80.4866E-03     72.3012E-03
            1081            1517     80.4866E-03     72.3012E-03
            1097            1517     80.4866E-03     72.3012E-03
            1080            1517     80.4866E-03     72.3012E-03
            1098            1518     76.7250E-03     69.1607E-03
            1082            1518     76.7250E-03     69.1607E-03
            1081            1518     76.7250E-03     69.1607E-03
            1097            1518     76.7250E-03     69.1607E-03
            1098            1519     72.7294E-03     65.8730E-03
            1099            1519     72.7294E-03     65.8730E-03
            1083            1519     72.7294E-03     65.8730E-03
            1082            1519     72.7294E-03     65.8730E-03
            1084            1520     68.7821E-03     62.6518E-03
            1083            1520     68.7821E-03     62.6518E-03
            1099            1520     68.7821E-03     62.6518E-03
            1100            1520     68.7821E-03     62.6518E-03
            1084            1521     64.9845E-03     59.7055E-03
            1085            1521     64.9845E-03     59.7055E-03
            1101            1521     64.9845E-03     59.7055E-03
            1100            1521     64.9845E-03     59.7055E-03
            1101            1522     61.5109E-03     57.2902E-03
            1086            1522     61.5109E-03     57.2902E-03
            1102            1522     61.5109E-03     57.2902E-03
            1085            1522     61.5109E-03     57.2902E-03
            1086            1523     58.3197E-03     55.2497E-03
            1103            1523     58.3197E-03     55.2497E-03
            1087            1523     58.3197E-03     55.2497E-03
            1102            1523     58.3197E-03     55.2497E-03
            1087            1524     55.3942E-03     54.6317E-03
            1104            1524     55.3942E-03     54.6317E-03
            1103            1524     55.3942E-03     54.6317E-03
            1088            1524     55.3942E-03     54.6317E-03
            1089            1525     50.6908E-03     56.4164E-03
            1105            1525     50.6908E-03     56.4164E-03
            1104            1525     50.6908E-03     56.4164E-03
            1088            1525     50.6908E-03     56.4164E-03
            1091            1526     101.431E-03     97.3627E-03
            1107            1526     101.431E-03     97.3627E-03
            1106            1526     101.431E-03     97.3627E-03
            1090            1526     101.431E-03     97.3627E-03
            1091            1527     128.568E-03     110.216E-03
            1092            1527     128.568E-03     110.216E-03
            1108            1527     128.568E-03     110.216E-03
            1107            1527     128.568E-03     110.216E-03
            1092            1528     152.804E-03     134.210E-03
            1108            1528     152.804E-03     134.210E-03
            1109            1528     152.804E-03     134.210E-03
            1093            1528     152.804E-03     134.210E-03
            1110            1529     159.484E-03     142.442E-03
            1093            1529     159.484E-03     142.442E-03
            1109            1529     159.484E-03     142.442E-03
            1094            1529     159.484E-03     142.442E-03
            1110            1530     158.700E-03     142.794E-03
            1111            1530     158.700E-03     142.794E-03
            1095            1530     158.700E-03     142.794E-03
            1094            1530     158.700E-03     142.794E-03
            1111            1531     153.702E-03     138.739E-03
            1112            1531     153.702E-03     138.739E-03
            1095            1531     153.702E-03     138.739E-03
            1096            1531     153.702E-03     138.739E-03
            1096            1532     146.834E-03     132.933E-03
            1097            1532     146.834E-03     132.933E-03
            1113            1532     146.834E-03     132.933E-03
            1112            1532     146.834E-03     132.933E-03
            1097            1533     139.371E-03     126.382E-03
            1114            1533     139.371E-03     126.382E-03
            1098            1533     139.371E-03     126.382E-03
            1113            1533     139.371E-03     126.382E-03
            1114            1534     131.746E-03     119.834E-03
            1098            1534     131.746E-03     119.834E-03
            1099            1534     131.746E-03     119.834E-03
            1115            1534     131.746E-03     119.834E-03
            1116            1535     124.421E-03     113.660E-03
            1115            1535     124.421E-03     113.660E-03
            1099            1535     124.421E-03     113.660E-03
            1100            1535     124.421E-03     113.660E-03
            1116            1536     117.489E-03     108.100E-03
            1117            1536     117.489E-03     108.100E-03
            1100            1536     117.489E-03     108.100E-03
            1101            1536     117.489E-03     108.100E-03
            1117            1537     111.158E-03     103.536E-03
            1101            1537     111.158E-03     103.536E-03
            1118            1537     111.158E-03     103.536E-03
            1102            1537     111.158E-03     103.536E-03
            1119            1538     105.286E-03     100.238E-03
            1102            1538     105.286E-03     100.238E-03
            1118            1538     105.286E-03     100.238E-03
            1103            1538     105.286E-03     100.238E-03
            1103            1539     99.3792E-03     99.6582E-03
            1120            1539     99.3792E-03     99.6582E-03
            1104            1539     99.3792E-03     99.6582E-03
            1119            1539     99.3792E-03     99.6582E-03
            1105            1540     94.4933E-03     102.477E-03
            1121            1540     94.4933E-03     102.477E-03
            1120            1540     94.4933E-03     102.477E-03
            1104            1540     94.4933E-03     102.477E-03
            1123            1541     132.960E-03     131.449E-03
            1122            1541     132.960E-03     131.449E-03
            1107            1541     132.960E-03     131.449E-03
            1106            1541     132.960E-03     131.449E-03
            1108            1542     143.639E-03     140.699E-03
            1123            1542     143.639E-03     140.699E-03
            1107            1542     143.639E-03     140.699E-03
            1124            1542     143.639E-03     140.699E-03
            1109            1543     165.347E-03     158.528E-03
            1124            1543     165.347E-03     158.528E-03
            1125            1543     165.347E-03     158.528E-03
            1108            1543     165.347E-03     158.528E-03
            1125            1544     167.885E-03     159.906E-03
            1110            1544     167.885E-03     159.906E-03
            1126            1544     167.885E-03     159.906E-03
            1109            1544     167.885E-03     159.906E-03
            1111            1545     162.572E-03     154.376E-03
            1126            1545     162.572E-03     154.376E-03
            1127            1545     162.572E-03     154.376E-03
            1110            1545     162.572E-03     154.376E-03
            1112            1546     153.639E-03     145.831E-03
            1128            1546     153.639E-03     145.831E-03
            1111            1546     153.639E-03     145.831E-03
            1127            1546     153.639E-03     145.831E-03
            1129            1547     144.225E-03     136.768E-03
            1112            1547     144.225E-03     136.768E-03
            1113            1547     144.225E-03     136.768E-03
            1128            1547     144.225E-03     136.768E-03
            1130            1548     134.807E-03     127.794E-03
            1113            1548     134.807E-03     127.794E-03
            1129            1548     134.807E-03     127.794E-03
            1114            1548     134.807E-03     127.794E-03
            1114            1549     125.942E-03     119.414E-03
            1130            1549     125.942E-03     119.414E-03
            1115            1549     125.942E-03     119.414E-03
            1131            1549     125.942E-03     119.414E-03
            1115            1550     117.693E-03     111.742E-03
            1116            1550     117.693E-03     111.742E-03
            1132            1550     117.693E-03     111.742E-03
            1131            1550     117.693E-03     111.742E-03
            1117            1551     110.167E-03     105.041E-03
            1132            1551     110.167E-03     105.041E-03
            1133            1551     110.167E-03     105.041E-03
            1116            1551     110.167E-03     105.041E-03
            1118            1552     103.534E-03     99.3606E-03
            1117            1552     103.534E-03     99.3606E-03
            1134            1552     103.534E-03     99.3606E-03
            1133            1552     103.534E-03     99.3606E-03
            1118            1553     97.3952E-03     95.4738E-03
            1119            1553     97.3952E-03     95.4738E-03
            1135            1553     97.3952E-03     95.4738E-03
            1134            1553     97.3952E-03     95.4738E-03
            1119            1554     92.8278E-03     93.7083E-03
            1120            1554     92.8278E-03     93.7083E-03
            1135            1554     92.8278E-03     93.7083E-03
            1136            1554     92.8278E-03     93.7083E-03
            1120            1555     92.7282E-03     90.5858E-03
            1136            1555     92.7282E-03     90.5858E-03
            1121            1555     92.7282E-03     90.5858E-03
            1137            1555     92.7282E-03     90.5858E-03
            1123            1556     177.897E-03     178.201E-03
            1122            1556     177.897E-03     178.201E-03
            1139            1556     177.897E-03     178.201E-03
            1138            1556     177.897E-03     178.201E-03
            1139            1557     166.135E-03     171.270E-03
            1140            1557     166.135E-03     171.270E-03
            1123            1557     166.135E-03     171.270E-03
            1124            1557     166.135E-03     171.270E-03
            1124            1558     173.248E-03     175.742E-03
            1125            1558     173.248E-03     175.742E-03
            1140            1558     173.248E-03     175.742E-03
            1141            1558     173.248E-03     175.742E-03
            1141            1559     171.377E-03     171.422E-03
            1142            1559     171.377E-03     171.422E-03
            1125            1559     171.377E-03     171.422E-03
            1126            1559     171.377E-03     171.422E-03
            1142            1560     161.718E-03     161.469E-03
            1143            1560     161.718E-03     161.469E-03
            1126            1560     161.718E-03     161.469E-03
            1127            1560     161.718E-03     161.469E-03
            1127            1561     151.118E-03     150.551E-03
            1143            1561     151.118E-03     150.551E-03
            1144            1561     151.118E-03     150.551E-03
            1128            1561     151.118E-03     150.551E-03
            1144            1562     140.015E-03     139.381E-03
            1129            1562     140.015E-03     139.381E-03
            1145            1562     140.015E-03     139.381E-03
            1128            1562     140.015E-03     139.381E-03
            1130            1563     129.554E-03     128.918E-03
            1146            1563     129.554E-03     128.918E-03
            1145            1563     129.554E-03     128.918E-03
            1129            1563     129.554E-03     128.918E-03
            1130            1564     119.806E-03     119.184E-03
            1147            1564     119.806E-03     119.184E-03
            1146            1564     119.806E-03     119.184E-03
            1131            1564     119.806E-03     119.184E-03
            1147            1565     110.890E-03     110.351E-03
            1132            1565     110.890E-03     110.351E-03
            1148            1565     110.890E-03     110.351E-03
            1131            1565     110.890E-03     110.351E-03
            1149            1566     102.925E-03     102.518E-03
            1132            1566     102.925E-03     102.518E-03
            1133            1566     102.925E-03     102.518E-03
            1148            1566     102.925E-03     102.518E-03
            1149            1567     95.9878E-03     95.8509E-03
            1134            1567     95.9878E-03     95.8509E-03
            1150            1567     95.9878E-03     95.8509E-03
            1133            1567     95.9878E-03     95.8509E-03
            1135            1568     90.7114E-03     90.3815E-03
            1150            1568     90.7114E-03     90.3815E-03
            1134            1568     90.7114E-03     90.3815E-03
            1151            1568     90.7114E-03     90.3815E-03
            1151            1569     88.0827E-03     84.9772E-03
            1152            1569     88.0827E-03     84.9772E-03
            1136            1569     88.0827E-03     84.9772E-03
            1135            1569     88.0827E-03     84.9772E-03
            1153            1570     87.1892E-03     79.6683E-03
            1152            1570     87.1892E-03     79.6683E-03
            1137            1570     87.1892E-03     79.6683E-03
            1136            1570     87.1892E-03     79.6683E-03
            1139            1571     222.304E-03     227.872E-03
            1154            1571     222.304E-03     227.872E-03
            1155            1571     222.304E-03     227.872E-03
            1138            1571     222.304E-03     227.872E-03
            1140            1572     194.834E-03     200.769E-03
            1155            1572     194.834E-03     200.769E-03
            1156            1572     194.834E-03     200.769E-03
            1139            1572     194.834E-03     200.769E-03
            1141            1573     179.858E-03     187.736E-03
            1156            1573     179.858E-03     187.736E-03
            1140            1573     179.858E-03     187.736E-03
            1157            1573     179.858E-03     187.736E-03
            1158            1574     167.848E-03     175.744E-03
            1142            1574     167.848E-03     175.744E-03
            1157            1574     167.848E-03     175.744E-03
            1141            1574     167.848E-03     175.744E-03
            1142            1575     156.728E-03     163.888E-03
            1158            1575     156.728E-03     163.888E-03
            1159            1575     156.728E-03     163.888E-03
            1143            1575     156.728E-03     163.888E-03
            1143            1576     145.021E-03     151.668E-03
            1144            1576     145.021E-03     151.668E-03
            1160            1576     145.021E-03     151.668E-03
            1159            1576     145.021E-03     151.668E-03
            1160            1577     133.704E-03     140.035E-03
            1161            1577     133.704E-03     140.035E-03
            1145            1577     133.704E-03     140.035E-03
            1144            1577     133.704E-03     140.035E-03
            1162            1578     122.959E-03     128.957E-03
            1161            1578     122.959E-03     128.957E-03
            1145            1578     122.959E-03     128.957E-03
            1146            1578     122.959E-03     128.957E-03
            1163            1579     112.894E-03     118.579E-03
            1162            1579     112.894E-03     118.579E-03
            1147            1579     112.894E-03     118.579E-03
            1146            1579     112.894E-03     118.579E-03
            1147            1580     103.688E-03     108.993E-03
            1148            1580     103.688E-03     108.993E-03
            1163            1580     103.688E-03     108.993E-03
            1164            1580     103.688E-03     108.993E-03
            1148            1581     95.4444E-03     100.229E-03
            1165            1581     95.4444E-03     100.229E-03
            1164            1581     95.4444E-03     100.229E-03
            1149            1581     95.4444E-03     100.229E-03
            1165            1582     88.4270E-03     92.5862E-03
            1149            1582     88.4270E-03     92.5862E-03
            1150            1582     88.4270E-03     92.5862E-03
            1166            1582     88.4270E-03     92.5862E-03
            1167            1583     83.5488E-03     85.5418E-03
            1151            1583     83.5488E-03     85.5418E-03
            1166            1583     83.5488E-03     85.5418E-03
            1150            1583     83.5488E-03     85.5418E-03
            1151            1584     81.1867E-03     78.3119E-03
            1152            1584     81.1867E-03     78.3119E-03
            1168            1584     81.1867E-03     78.3119E-03
            1167            1584     81.1867E-03     78.3119E-03
            1168            1585     80.3268E-03     72.8593E-03
            1153            1585     80.3268E-03     72.8593E-03
            1152            1585     80.3268E-03     72.8593E-03
            1169            1585     80.3268E-03     72.8593E-03
            1154            1586     269.856E-03     271.355E-03
            1170            1586     269.856E-03     271.355E-03
            1171            1586     269.856E-03     271.355E-03
            1155            1586     269.856E-03     271.355E-03
            1156            1587     214.080E-03     223.906E-03
            1155            1587     214.080E-03     223.906E-03
            1171            1587     214.080E-03     223.906E-03
            1172            1587     214.080E-03     223.906E-03
            1156            1588     178.675E-03     193.086E-03
            1172            1588     178.675E-03     193.086E-03
            1173            1588     178.675E-03     193.086E-03
            1157            1588     178.675E-03     193.086E-03
            1157            1589     160.898E-03     175.938E-03
            1173            1589     160.898E-03     175.938E-03
            1174            1589     160.898E-03     175.938E-03
            1158            1589     160.898E-03     175.938E-03
            1175            1590     148.213E-03     162.546E-03
            1158            1590     148.213E-03     162.546E-03
            1174            1590     148.213E-03     162.546E-03
            1159            1590     148.213E-03     162.546E-03
            1160            1591     136.532E-03     150.420E-03
            1175            1591     136.532E-03     150.420E-03
            1159            1591     136.532E-03     150.420E-03
            1176            1591     136.532E-03     150.420E-03
            1161            1592     125.655E-03     139.059E-03
            1160            1592     125.655E-03     139.059E-03
            1176            1592     125.655E-03     139.059E-03
            1177            1592     125.655E-03     139.059E-03
            1162            1593     115.124E-03     128.057E-03
            1177            1593     115.124E-03     128.057E-03
            1178            1593     115.124E-03     128.057E-03
            1161            1593     115.124E-03     128.057E-03
            1178            1594     105.177E-03     117.542E-03
            1179            1594     105.177E-03     117.542E-03
            1163            1594     105.177E-03     117.542E-03
            1162            1594     105.177E-03     117.542E-03
            1163            1595     95.8858E-03     107.469E-03
            1180            1595     95.8858E-03     107.469E-03
            1164            1595     95.8858E-03     107.469E-03
            1179            1595     95.8858E-03     107.469E-03
            1181            1596     87.5456E-03     98.1085E-03
            1164            1596     87.5456E-03     98.1085E-03
            1165            1596     87.5456E-03     98.1085E-03
            1180            1596     87.5456E-03     98.1085E-03
            1181            1597     80.5487E-03     89.3783E-03
            1166            1597     80.5487E-03     89.3783E-03
            1182            1597     80.5487E-03     89.3783E-03
            1165            1597     80.5487E-03     89.3783E-03
            1167            1598     74.9767E-03     81.6481E-03
            1183            1598     74.9767E-03     81.6481E-03
            1166            1598     74.9767E-03     81.6481E-03
            1182            1598     74.9767E-03     81.6481E-03
            1167            1599     71.8210E-03     74.9934E-03
            1168            1599     71.8210E-03     74.9934E-03
            1184            1599     71.8210E-03     74.9934E-03
            1183            1599     71.8210E-03     74.9934E-03
            1168            1600     72.1778E-03     68.1615E-03
            1169            1600     72.1778E-03     68.1615E-03
            1185            1600     72.1778E-03     68.1615E-03
            1184            1600     72.1778E-03     68.1615E-03
            1186            1601     295.424E-03     314.444E-03
            1170            1601     295.424E-03     314.444E-03
            1171            1601     295.424E-03     314.444E-03
            1187            1601     295.424E-03     314.444E-03
            1172            1602     211.377E-03     233.946E-03
            1171            1602     211.377E-03     233.946E-03
            1187            1602     211.377E-03     233.946E-03
            1188            1602     211.377E-03     233.946E-03
            1172            1603     172.856E-03     195.131E-03
            1173            1603     172.856E-03     195.131E-03
            1189            1603     172.856E-03     195.131E-03
            1188            1603     172.856E-03     195.131E-03
            1189            1604     153.056E-03     174.879E-03
            1174            1604     153.056E-03     174.879E-03
            1173            1604     153.056E-03     174.879E-03
            1190            1604     153.056E-03     174.879E-03
            1174            1605     138.740E-03     160.379E-03
            1191            1605     138.740E-03     160.379E-03
            1190            1605     138.740E-03     160.379E-03
            1175            1605     138.740E-03     160.379E-03
            1192            1606     127.506E-03     148.738E-03
            1191            1606     127.506E-03     148.738E-03
            1175            1606     127.506E-03     148.738E-03
            1176            1606     127.506E-03     148.738E-03
            1192            1607     116.821E-03     137.606E-03
            1193            1607     116.821E-03     137.606E-03
            1176            1607     116.821E-03     137.606E-03
            1177            1607     116.821E-03     137.606E-03
            1177            1608     106.639E-03     126.904E-03
            1194            1608     106.639E-03     126.904E-03
            1193            1608     106.639E-03     126.904E-03
            1178            1608     106.639E-03     126.904E-03
            1194            1609     96.7991E-03     116.284E-03
            1179            1609     96.7991E-03     116.284E-03
            1195            1609     96.7991E-03     116.284E-03
            1178            1609     96.7991E-03     116.284E-03
            1179            1610     87.5330E-03     105.994E-03
            1196            1610     87.5330E-03     105.994E-03
            1195            1610     87.5330E-03     105.994E-03
            1180            1610     87.5330E-03     105.994E-03
            1181            1611     79.1345E-03     96.0413E-03
            1196            1611     79.1345E-03     96.0413E-03
            1197            1611     79.1345E-03     96.0413E-03
            1180            1611     79.1345E-03     96.0413E-03
            1197            1612     71.9595E-03     86.6507E-03
            1182            1612     71.9595E-03     86.6507E-03
            1198            1612     71.9595E-03     86.6507E-03
            1181            1612     71.9595E-03     86.6507E-03
            1182            1613     66.1819E-03     78.1539E-03
            1183            1613     66.1819E-03     78.1539E-03
            1199            1613     66.1819E-03     78.1539E-03
            1198            1613     66.1819E-03     78.1539E-03
            1183            1614     61.9164E-03     71.4131E-03
            1184            1614     61.9164E-03     71.4131E-03
            1200            1614     61.9164E-03     71.4131E-03
            1199            1614     61.9164E-03     71.4131E-03
            1185            1615     59.9586E-03     66.7613E-03
            1184            1615     59.9586E-03     66.7613E-03
            1201            1615     59.9586E-03     66.7613E-03
            1200            1615     59.9586E-03     66.7613E-03
            1186            1616     315.970E-03     323.046E-03
            1202            1616     315.970E-03     323.046E-03
            1203            1616     315.970E-03     323.046E-03
            1187            1616     315.970E-03     323.046E-03
            1203            1617     287.865E-03     289.070E-03
            1204            1617     287.865E-03     289.070E-03
            1187            1617     287.865E-03     289.070E-03
            1188            1617     287.865E-03     289.070E-03
            1189            1618     270.489E-03     271.511E-03
            1188            1618     270.489E-03     271.511E-03
            1204            1618     270.489E-03     271.511E-03
            1205            1618     270.489E-03     271.511E-03
            1190            1619     253.371E-03     255.563E-03
            1206            1619     253.371E-03     255.563E-03
            1189            1619     253.371E-03     255.563E-03
            1205            1619     253.371E-03     255.563E-03
            1191            1620     236.823E-03     239.589E-03
            1207            1620     236.823E-03     239.589E-03
            1190            1620     236.823E-03     239.589E-03
            1206            1620     236.823E-03     239.589E-03
            1207            1621     219.856E-03     222.978E-03
            1191            1621     219.856E-03     222.978E-03
            1208            1621     219.856E-03     222.978E-03
            1192            1621     219.856E-03     222.978E-03
            1192            1622     202.592E-03     205.837E-03
            1208            1622     202.592E-03     205.837E-03
            1209            1622     202.592E-03     205.837E-03
            1193            1622     202.592E-03     205.837E-03
            1209            1623     185.321E-03     188.625E-03
            1210            1623     185.321E-03     188.625E-03
            1194            1623     185.321E-03     188.625E-03
            1193            1623     185.321E-03     188.625E-03
            1210            1624     168.128E-03     171.298E-03
            1195            1624     168.128E-03     171.298E-03
            1211            1624     168.128E-03     171.298E-03
            1194            1624     168.128E-03     171.298E-03
            1196            1625     151.455E-03     154.522E-03
            1212            1625     151.455E-03     154.522E-03
            1211            1625     151.455E-03     154.522E-03
            1195            1625     151.455E-03     154.522E-03
            1212            1626     135.532E-03     138.219E-03
            1213            1626     135.532E-03     138.219E-03
            1197            1626     135.532E-03     138.219E-03
            1196            1626     135.532E-03     138.219E-03
            1198            1627     120.943E-03     123.366E-03
            1213            1627     120.943E-03     123.366E-03
            1197            1627     120.943E-03     123.366E-03
            1214            1627     120.943E-03     123.366E-03
            1214            1628     108.059E-03     109.797E-03
            1215            1628     108.059E-03     109.797E-03
            1198            1628     108.059E-03     109.797E-03
            1199            1628     108.059E-03     109.797E-03
            1215            1629     97.3158E-03     100.177E-03
            1199            1629     97.3158E-03     100.177E-03
            1216            1629     97.3158E-03     100.177E-03
            1200            1629     97.3158E-03     100.177E-03
            1200            1630     85.7738E-03     96.8938E-03
            1216            1630     85.7738E-03     96.8938E-03
            1217            1630     85.7738E-03     96.8938E-03
            1201            1630     85.7738E-03     96.8938E-03
            1203            1631     358.101E-03     344.932E-03
            1218            1631     358.101E-03     344.932E-03
            1202            1631     358.101E-03     344.932E-03
            1219            1631     358.101E-03     344.932E-03
            1219            1632     382.210E-03     366.430E-03
            1203            1632     382.210E-03     366.430E-03
            1220            1632     382.210E-03     366.430E-03
            1204            1632     382.210E-03     366.430E-03
            1205            1633     379.932E-03     364.651E-03
            1204            1633     379.932E-03     364.651E-03
            1220            1633     379.932E-03     364.651E-03
            1221            1633     379.932E-03     364.651E-03
            1221            1634     363.670E-03     348.923E-03
            1222            1634     363.670E-03     348.923E-03
            1205            1634     363.670E-03     348.923E-03
            1206            1634     363.670E-03     348.923E-03
            1223            1635     341.135E-03     326.987E-03
            1222            1635     341.135E-03     326.987E-03
            1207            1635     341.135E-03     326.987E-03
            1206            1635     341.135E-03     326.987E-03
            1223            1636     315.934E-03     302.595E-03
            1208            1636     315.934E-03     302.595E-03
            1224            1636     315.934E-03     302.595E-03
            1207            1636     315.934E-03     302.595E-03
            1224            1637     290.304E-03     277.246E-03
            1209            1637     290.304E-03     277.246E-03
            1225            1637     290.304E-03     277.246E-03
            1208            1637     290.304E-03     277.246E-03
            1209            1638     264.377E-03     251.804E-03
            1225            1638     264.377E-03     251.804E-03
            1210            1638     264.377E-03     251.804E-03
            1226            1638     264.377E-03     251.804E-03
            1227            1639     238.828E-03     226.624E-03
            1226            1639     238.828E-03     226.624E-03
            1210            1639     238.828E-03     226.624E-03
            1211            1639     238.828E-03     226.624E-03
            1211            1640     213.754E-03     202.109E-03
            1212            1640     213.754E-03     202.109E-03
            1228            1640     213.754E-03     202.109E-03
            1227            1640     213.754E-03     202.109E-03
            1229            1641     189.575E-03     178.689E-03
            1228            1641     189.575E-03     178.689E-03
            1212            1641     189.575E-03     178.689E-03
            1213            1641     189.575E-03     178.689E-03
            1213            1642     166.828E-03     157.068E-03
            1230            1642     166.828E-03     157.068E-03
            1214            1642     166.828E-03     157.068E-03
            1229            1642     166.828E-03     157.068E-03
            1230            1643     145.855E-03     138.342E-03
            1214            1643     145.855E-03     138.342E-03
            1215            1643     145.855E-03     138.342E-03
            1231            1643     145.855E-03     138.342E-03
            1231            1644     127.144E-03     125.444E-03
            1232            1644     127.144E-03     125.444E-03
            1215            1644     127.144E-03     125.444E-03
            1216            1644     127.144E-03     125.444E-03
            1232            1645     112.793E-03     121.613E-03
            1233            1645     112.793E-03     121.613E-03
            1216            1645     112.793E-03     121.613E-03
            1217            1645     112.793E-03     121.613E-03
            1219            1646     407.680E-03     412.741E-03
            1235            1646     407.680E-03     412.741E-03
            1218            1646     407.680E-03     412.741E-03
            1234            1646     407.680E-03     412.741E-03
            1236            1647     403.989E-03     408.801E-03
            1220            1647     403.989E-03     408.801E-03
            1219            1647     403.989E-03     408.801E-03
            1235            1647     403.989E-03     408.801E-03
            1220            1648     395.112E-03     394.496E-03
            1236            1648     395.112E-03     394.496E-03
            1237            1648     395.112E-03     394.496E-03
            1221            1648     395.112E-03     394.496E-03
            1221            1649     370.593E-03     368.341E-03
            1222            1649     370.593E-03     368.341E-03
            1237            1649     370.593E-03     368.341E-03
            1238            1649     370.593E-03     368.341E-03
            1223            1650     341.940E-03     339.514E-03
            1222            1650     341.940E-03     339.514E-03
            1239            1650     341.940E-03     339.514E-03
            1238            1650     341.940E-03     339.514E-03
            1240            1651     313.198E-03     310.523E-03
            1239            1651     313.198E-03     310.523E-03
            1223            1651     313.198E-03     310.523E-03
            1224            1651     313.198E-03     310.523E-03
            1225            1652     284.476E-03     281.861E-03
            1240            1652     284.476E-03     281.861E-03
            1241            1652     284.476E-03     281.861E-03
            1224            1652     284.476E-03     281.861E-03
            1241            1653     256.436E-03     253.796E-03
            1242            1653     256.436E-03     253.796E-03
            1225            1653     256.436E-03     253.796E-03
            1226            1653     256.436E-03     253.796E-03
            1226            1654     228.932E-03     226.381E-03
            1243            1654     228.932E-03     226.381E-03
            1242            1654     228.932E-03     226.381E-03
            1227            1654     228.932E-03     226.381E-03
            1228            1655     202.244E-03     199.675E-03
            1244            1655     202.244E-03     199.675E-03
            1227            1655     202.244E-03     199.675E-03
            1243            1655     202.244E-03     199.675E-03
            1245            1656     176.435E-03     174.068E-03
            1228            1656     176.435E-03     174.068E-03
            1244            1656     176.435E-03     174.068E-03
            1229            1656     176.435E-03     174.068E-03
            1246            1657     152.059E-03     150.046E-03
            1245            1657     152.059E-03     150.046E-03
            1229            1657     152.059E-03     150.046E-03
            1230            1657     152.059E-03     150.046E-03
            1247            1658     129.437E-03     128.967E-03
            1230            1658     129.437E-03     128.967E-03
            1231            1658     129.437E-03     128.967E-03
            1246            1658     129.437E-03     128.967E-03
            1231            1659     110.201E-03     113.438E-03
            1247            1659     110.201E-03     113.438E-03
            1248            1659     110.201E-03     113.438E-03
            1232            1659     110.201E-03     113.438E-03
            1249            1660     100.440E-03     101.058E-03
            1248            1660     100.440E-03     101.058E-03
            1233            1660     100.440E-03     101.058E-03
            1232            1660     100.440E-03     101.058E-03
            1235            1661     458.838E-03     470.779E-03
            1251            1661     458.838E-03     470.779E-03
            1234            1661     458.838E-03     470.779E-03
            1250            1661     458.838E-03     470.779E-03
            1236            1662     429.511E-03     441.440E-03
            1252            1662     429.511E-03     441.440E-03
            1235            1662     429.511E-03     441.440E-03
            1251            1662     429.511E-03     441.440E-03
            1236            1663     399.923E-03     410.941E-03
            1252            1663     399.923E-03     410.941E-03
            1253            1663     399.923E-03     410.941E-03
            1237            1663     399.923E-03     410.941E-03
            1254            1664     367.925E-03     377.867E-03
            1237            1664     367.925E-03     377.867E-03
            1253            1664     367.925E-03     377.867E-03
            1238            1664     367.925E-03     377.867E-03
            1255            1665     337.194E-03     346.085E-03
            1254            1665     337.194E-03     346.085E-03
            1238            1665     337.194E-03     346.085E-03
            1239            1665     337.194E-03     346.085E-03
            1256            1666     306.751E-03     315.008E-03
            1239            1666     306.751E-03     315.008E-03
            1240            1666     306.751E-03     315.008E-03
            1255            1666     306.751E-03     315.008E-03
            1240            1667     276.888E-03     284.914E-03
            1257            1667     276.888E-03     284.914E-03
            1256            1667     276.888E-03     284.914E-03
            1241            1667     276.888E-03     284.914E-03
            1258            1668     247.622E-03     255.477E-03
            1241            1668     247.622E-03     255.477E-03
            1257            1668     247.622E-03     255.477E-03
            1242            1668     247.622E-03     255.477E-03
            1258            1669     218.957E-03     226.641E-03
            1242            1669     218.957E-03     226.641E-03
            1259            1669     218.957E-03     226.641E-03
            1243            1669     218.957E-03     226.641E-03
            1243            1670     190.943E-03     198.459E-03
            1259            1670     190.943E-03     198.459E-03
            1260            1670     190.943E-03     198.459E-03
            1244            1670     190.943E-03     198.459E-03
            1244            1671     163.865E-03     171.079E-03
            1261            1671     163.865E-03     171.079E-03
            1245            1671     163.865E-03     171.079E-03
            1260            1671     163.865E-03     171.079E-03
            1245            1672     137.915E-03     145.006E-03
            1262            1672     137.915E-03     145.006E-03
            1246            1672     137.915E-03     145.006E-03
            1261            1672     137.915E-03     145.006E-03
            1262            1673     114.148E-03     121.281E-03
            1263            1673     114.148E-03     121.281E-03
            1247            1673     114.148E-03     121.281E-03
            1246            1673     114.148E-03     121.281E-03
            1247            1674     95.8199E-03     99.5299E-03
            1263            1674     95.8199E-03     99.5299E-03
            1264            1674     95.8199E-03     99.5299E-03
            1248            1674     95.8199E-03     99.5299E-03
            1264            1675     84.7442E-03     80.2696E-03
            1265            1675     84.7442E-03     80.2696E-03
            1248            1675     84.7442E-03     80.2696E-03
            1249            1675     84.7442E-03     80.2696E-03
            1266            1676     508.038E-03     514.371E-03
            1267            1676     508.038E-03     514.371E-03
            1251            1676     508.038E-03     514.371E-03
            1250            1676     508.038E-03     514.371E-03
            1268            1677     444.543E-03     460.987E-03
            1267            1677     444.543E-03     460.987E-03
            1252            1677     444.543E-03     460.987E-03
            1251            1677     444.543E-03     460.987E-03
            1269            1678     392.699E-03     413.726E-03
            1252            1678     392.699E-03     413.726E-03
            1253            1678     392.699E-03     413.726E-03
            1268            1678     392.699E-03     413.726E-03
            1269            1679     358.166E-03     378.563E-03
            1253            1679     358.166E-03     378.563E-03
            1254            1679     358.166E-03     378.563E-03
            1270            1679     358.166E-03     378.563E-03
            1254            1680     327.011E-03     346.371E-03
            1271            1680     327.011E-03     346.371E-03
            1255            1680     327.011E-03     346.371E-03
            1270            1680     327.011E-03     346.371E-03
            1256            1681     296.671E-03     315.754E-03
            1255            1681     296.671E-03     315.754E-03
            1271            1681     296.671E-03     315.754E-03
            1272            1681     296.671E-03     315.754E-03
            1256            1682     267.018E-03     285.802E-03
            1273            1682     267.018E-03     285.802E-03
            1257            1682     267.018E-03     285.802E-03
            1272            1682     267.018E-03     285.802E-03
            1274            1683     237.492E-03     256.191E-03
            1258            1683     237.492E-03     256.191E-03
            1273            1683     237.492E-03     256.191E-03
            1257            1683     237.492E-03     256.191E-03
            1258            1684     208.367E-03     226.891E-03
            1274            1684     208.367E-03     226.891E-03
            1275            1684     208.367E-03     226.891E-03
            1259            1684     208.367E-03     226.891E-03
            1260            1685     179.637E-03     197.910E-03
            1275            1685     179.637E-03     197.910E-03
            1276            1685     179.637E-03     197.910E-03
            1259            1685     179.637E-03     197.910E-03
            1260            1686     151.528E-03     169.414E-03
            1261            1686     151.528E-03     169.414E-03
            1276            1686     151.528E-03     169.414E-03
            1277            1686     151.528E-03     169.414E-03
            1261            1687     124.478E-03     141.684E-03
            1262            1687     124.478E-03     141.684E-03
            1278            1687     124.478E-03     141.684E-03
            1277            1687     124.478E-03     141.684E-03
            1279            1688     99.5606E-03     115.037E-03
            1262            1688     99.5606E-03     115.037E-03
            1263            1688     99.5606E-03     115.037E-03
            1278            1688     99.5606E-03     115.037E-03
            1263            1689     79.1069E-03     88.9931E-03
            1280            1689     79.1069E-03     88.9931E-03
            1264            1689     79.1069E-03     88.9931E-03
            1279            1689     79.1069E-03     88.9931E-03
            1264            1690     66.8379E-03     66.7328E-03
            1281            1690     66.8379E-03     66.7328E-03
            1265            1690     66.8379E-03     66.7328E-03
            1280            1690     66.8379E-03     66.7328E-03
            1283            1691     528.898E-03     550.364E-03
            1267            1691     528.898E-03     550.364E-03
            1266            1691     528.898E-03     550.364E-03
            1282            1691     528.898E-03     550.364E-03
            1283            1692     433.206E-03     460.937E-03
            1284            1692     433.206E-03     460.937E-03
            1268            1692     433.206E-03     460.937E-03
            1267            1692     433.206E-03     460.937E-03
            1284            1693     380.551E-03     409.038E-03
            1268            1693     380.551E-03     409.038E-03
            1285            1693     380.551E-03     409.038E-03
            1269            1693     380.551E-03     409.038E-03
            1269            1694     344.997E-03     374.037E-03
            1285            1694     344.997E-03     374.037E-03
            1286            1694     344.997E-03     374.037E-03
            1270            1694     344.997E-03     374.037E-03
            1286            1695     313.695E-03     343.236E-03
            1271            1695     313.695E-03     343.236E-03
            1270            1695     313.695E-03     343.236E-03
            1287            1695     313.695E-03     343.236E-03
            1272            1696     284.498E-03     314.190E-03
            1288            1696     284.498E-03     314.190E-03
            1271            1696     284.498E-03     314.190E-03
            1287            1696     284.498E-03     314.190E-03
            1288            1697     255.344E-03     285.175E-03
            1289            1697     255.344E-03     285.175E-03
            1272            1697     255.344E-03     285.175E-03
            1273            1697     255.344E-03     285.175E-03
            1274            1698     226.371E-03     256.200E-03
            1289            1698     226.371E-03     256.200E-03
            1290            1698     226.371E-03     256.200E-03
            1273            1698     226.371E-03     256.200E-03
            1290            1699     197.264E-03     227.069E-03
            1275            1699     197.264E-03     227.069E-03
            1274            1699     197.264E-03     227.069E-03
            1291            1699     197.264E-03     227.069E-03
            1275            1700     168.327E-03     197.999E-03
            1291            1700     168.327E-03     197.999E-03
            1292            1700     168.327E-03     197.999E-03
            1276            1700     168.327E-03     197.999E-03
            1277            1701     139.612E-03     168.994E-03
            1293            1701     139.612E-03     168.994E-03
            1292            1701     139.612E-03     168.994E-03
            1276            1701     139.612E-03     168.994E-03
            1294            1702     111.619E-03     140.215E-03
            1293            1702     111.619E-03     140.215E-03
            1277            1702     111.619E-03     140.215E-03
            1278            1702     111.619E-03     140.215E-03
            1278            1703     85.1803E-03     111.374E-03
            1279            1703     85.1803E-03     111.374E-03
            1294            1703     85.1803E-03     111.374E-03
            1295            1703     85.1803E-03     111.374E-03
            1296            1704     61.5078E-03     83.6354E-03
            1280            1704     61.5078E-03     83.6354E-03
            1295            1704     61.5078E-03     83.6354E-03
            1279            1704     61.5078E-03     83.6354E-03
            1281            1705     46.1211E-03     57.2745E-03
            1296            1705     46.1211E-03     57.2745E-03
            1280            1705     46.1211E-03     57.2745E-03
            1297            1705     46.1211E-03     57.2745E-03
            1283            1706     545.529E-03     555.322E-03
            1282            1706     545.529E-03     555.322E-03
            1298            1706     545.529E-03     555.322E-03
            1299            1706     545.529E-03     555.322E-03
            1283            1707     503.373E-03     506.116E-03
            1284            1707     503.373E-03     506.116E-03
            1300            1707     503.373E-03     506.116E-03
            1299            1707     503.373E-03     506.116E-03
            1301            1708     472.631E-03     477.576E-03
            1284            1708     472.631E-03     477.576E-03
            1285            1708     472.631E-03     477.576E-03
            1300            1708     472.631E-03     477.576E-03
            1302            1709     441.710E-03     449.656E-03
            1286            1709     441.710E-03     449.656E-03
            1285            1709     441.710E-03     449.656E-03
            1301            1709     441.710E-03     449.656E-03
            1286            1710     410.508E-03     420.219E-03
            1287            1710     410.508E-03     420.219E-03
            1303            1710     410.508E-03     420.219E-03
            1302            1710     410.508E-03     420.219E-03
            1303            1711     378.035E-03     389.202E-03
            1287            1711     378.035E-03     389.202E-03
            1304            1711     378.035E-03     389.202E-03
            1288            1711     378.035E-03     389.202E-03
            1305            1712     344.820E-03     356.523E-03
            1304            1712     344.820E-03     356.523E-03
            1289            1712     344.820E-03     356.523E-03
            1288            1712     344.820E-03     356.523E-03
            1306            1713     310.848E-03     323.079E-03
            1305            1713     310.848E-03     323.079E-03
            1290            1713     310.848E-03     323.079E-03
            1289            1713     310.848E-03     323.079E-03
            1290            1714     276.782E-03     289.277E-03
            1291            1714     276.782E-03     289.277E-03
            1307            1714     276.782E-03     289.277E-03
            1306            1714     276.782E-03     289.277E-03
            1291            1715     242.696E-03     255.528E-03
            1308            1715     242.696E-03     255.528E-03
            1307            1715     242.696E-03     255.528E-03
            1292            1715     242.696E-03     255.528E-03
            1309            1716     209.342E-03     222.320E-03
            1293            1716     209.342E-03     222.320E-03
            1292            1716     209.342E-03     222.320E-03
            1308            1716     209.342E-03     222.320E-03
            1309            1717     177.074E-03     190.086E-03
            1310            1717     177.074E-03     190.086E-03
            1294            1717     177.074E-03     190.086E-03
            1293            1717     177.074E-03     190.086E-03
            1295            1718     147.043E-03     159.517E-03
            1294            1718     147.043E-03     159.517E-03
            1310            1718     147.043E-03     159.517E-03
            1311            1718     147.043E-03     159.517E-03
            1312            1719     120.554E-03     132.714E-03
            1311            1719     120.554E-03     132.714E-03
            1295            1719     120.554E-03     132.714E-03
            1296            1719     120.554E-03     132.714E-03
            1312            1720     96.7933E-03     114.695E-03
            1296            1720     96.7933E-03     114.695E-03
            1313            1720     96.7933E-03     114.695E-03
            1297            1720     96.7933E-03     114.695E-03
            1314            1721     595.263E-03     582.388E-03
            1315            1721     595.263E-03     582.388E-03
            1299            1721     595.263E-03     582.388E-03
            1298            1721     595.263E-03     582.388E-03
            1316            1722     601.250E-03     589.314E-03
            1315            1722     601.250E-03     589.314E-03
            1300            1722     601.250E-03     589.314E-03
            1299            1722     601.250E-03     589.314E-03
            1317            1723     586.247E-03     573.743E-03
            1300            1723     586.247E-03     573.743E-03
            1301            1723     586.247E-03     573.743E-03
            1316            1723     586.247E-03     573.743E-03
            1317            1724     556.809E-03     546.013E-03
            1318            1724     556.809E-03     546.013E-03
            1301            1724     556.809E-03     546.013E-03
            1302            1724     556.809E-03     546.013E-03
            1318            1725     521.055E-03     511.557E-03
            1302            1725     521.055E-03     511.557E-03
            1303            1725     521.055E-03     511.557E-03
            1319            1725     521.055E-03     511.557E-03
            1320            1726     481.704E-03     473.085E-03
            1304            1726     481.704E-03     473.085E-03
            1303            1726     481.704E-03     473.085E-03
            1319            1726     481.704E-03     473.085E-03
            1304            1727     440.731E-03     432.993E-03
            1320            1727     440.731E-03     432.993E-03
            1321            1727     440.731E-03     432.993E-03
            1305            1727     440.731E-03     432.993E-03
            1306            1728     399.401E-03     392.024E-03
            1321            1728     399.401E-03     392.024E-03
            1322            1728     399.401E-03     392.024E-03
            1305            1728     399.401E-03     392.024E-03
            1307            1729     358.000E-03     351.084E-03
            1323            1729     358.000E-03     351.084E-03
            1306            1729     358.000E-03     351.084E-03
            1322            1729     358.000E-03     351.084E-03
            1308            1730     317.272E-03     310.637E-03
            1323            1730     317.272E-03     310.637E-03
            1324            1730     317.272E-03     310.637E-03
            1307            1730     317.272E-03     310.637E-03
            1324            1731     277.535E-03     271.371E-03
            1325            1731     277.535E-03     271.371E-03
            1308            1731     277.535E-03     271.371E-03
            1309            1731     277.535E-03     271.371E-03
            1325            1732     239.794E-03     234.283E-03
            1326            1732     239.794E-03     234.283E-03
            1310            1732     239.794E-03     234.283E-03
            1309            1732     239.794E-03     234.283E-03
            1327            1733     204.703E-03     200.993E-03
            1310            1733     204.703E-03     200.993E-03
            1326            1733     204.703E-03     200.993E-03
            1311            1733     204.703E-03     200.993E-03
            1312            1734     173.375E-03     176.040E-03
            1327            1734     173.375E-03     176.040E-03
            1328            1734     173.375E-03     176.040E-03
            1311            1734     173.375E-03     176.040E-03
            1312            1735     149.245E-03     165.649E-03
            1313            1735     149.245E-03     165.649E-03
            1328            1735     149.245E-03     165.649E-03
            1329            1735     149.245E-03     165.649E-03
            1315            1736     650.903E-03     660.143E-03
            1331            1736     650.903E-03     660.143E-03
            1314            1736     650.903E-03     660.143E-03
            1330            1736     650.903E-03     660.143E-03
            1331            1737     635.755E-03     643.888E-03
            1316            1737     635.755E-03     643.888E-03
            1332            1737     635.755E-03     643.888E-03
            1315            1737     635.755E-03     643.888E-03
            1332            1738     611.781E-03     616.580E-03
            1316            1738     611.781E-03     616.580E-03
            1317            1738     611.781E-03     616.580E-03
            1333            1738     611.781E-03     616.580E-03
            1317            1739     574.928E-03     576.937E-03
            1334            1739     574.928E-03     576.937E-03
            1333            1739     574.928E-03     576.937E-03
            1318            1739     574.928E-03     576.937E-03
            1319            1740     531.728E-03     532.590E-03
            1335            1740     531.728E-03     532.590E-03
            1318            1740     531.728E-03     532.590E-03
            1334            1740     531.728E-03     532.590E-03
            1320            1741     486.218E-03     486.946E-03
            1335            1741     486.218E-03     486.946E-03
            1336            1741     486.218E-03     486.946E-03
            1319            1741     486.218E-03     486.946E-03
            1321            1742     440.708E-03     441.190E-03
            1336            1742     440.708E-03     441.190E-03
            1337            1742     440.708E-03     441.190E-03
            1320            1742     440.708E-03     441.190E-03
            1322            1743     395.313E-03     395.833E-03
            1338            1743     395.313E-03     395.833E-03
            1321            1743     395.313E-03     395.833E-03
            1337            1743     395.313E-03     395.833E-03
            1323            1744     350.624E-03     351.084E-03
            1339            1744     350.624E-03     351.084E-03
            1338            1744     350.624E-03     351.084E-03
            1322            1744     350.624E-03     351.084E-03
            1323            1745     306.713E-03     307.165E-03
            1339            1745     306.713E-03     307.165E-03
            1324            1745     306.713E-03     307.165E-03
            1340            1745     306.713E-03     307.165E-03
            1340            1746     263.880E-03     264.507E-03
            1324            1746     263.880E-03     264.507E-03
            1325            1746     263.880E-03     264.507E-03
            1341            1746     263.880E-03     264.507E-03
            1325            1747     222.600E-03     223.970E-03
            1326            1747     222.600E-03     223.970E-03
            1342            1747     222.600E-03     223.970E-03
            1341            1747     222.600E-03     223.970E-03
            1342            1748     183.431E-03     187.405E-03
            1326            1748     183.431E-03     187.405E-03
            1343            1748     183.431E-03     187.405E-03
            1327            1748     183.431E-03     187.405E-03
            1327            1749     148.740E-03     159.095E-03
            1344            1749     148.740E-03     159.095E-03
            1328            1749     148.740E-03     159.095E-03
            1343            1749     148.740E-03     159.095E-03
            1345            1750     128.525E-03     136.870E-03
            1328            1750     128.525E-03     136.870E-03
            1329            1750     128.525E-03     136.870E-03
            1344            1750     128.525E-03     136.870E-03
            1330            1751     707.003E-03     719.709E-03
            1331            1751     707.003E-03     719.709E-03
            1346            1751     707.003E-03     719.709E-03
            1347            1751     707.003E-03     719.709E-03
            1348            1752     667.884E-03     686.602E-03
            1347            1752     667.884E-03     686.602E-03
            1331            1752     667.884E-03     686.602E-03
            1332            1752     667.884E-03     686.602E-03
            1348            1753     629.235E-03     644.935E-03
            1333            1753     629.235E-03     644.935E-03
            1332            1753     629.235E-03     644.935E-03
            1349            1753     629.235E-03     644.935E-03
            1333            1754     583.217E-03     595.945E-03
            1349            1754     583.217E-03     595.945E-03
            1334            1754     583.217E-03     595.945E-03
            1350            1754     583.217E-03     595.945E-03
            1335            1755     534.021E-03     545.163E-03
            1351            1755     534.021E-03     545.163E-03
            1334            1755     534.021E-03     545.163E-03
            1350            1755     534.021E-03     545.163E-03
            1352            1756     485.581E-03     495.381E-03
            1335            1756     485.581E-03     495.381E-03
            1351            1756     485.581E-03     495.381E-03
            1336            1756     485.581E-03     495.381E-03
            1337            1757     437.250E-03     446.381E-03
            1353            1757     437.250E-03     446.381E-03
            1352            1757     437.250E-03     446.381E-03
            1336            1757     437.250E-03     446.381E-03
            1353            1758     389.709E-03     398.420E-03
            1337            1758     389.709E-03     398.420E-03
            1354            1758     389.709E-03     398.420E-03
            1338            1758     389.709E-03     398.420E-03
            1354            1759     342.839E-03     351.270E-03
            1339            1759     342.839E-03     351.270E-03
            1338            1759     342.839E-03     351.270E-03
            1355            1759     342.839E-03     351.270E-03
            1355            1760     296.709E-03     304.987E-03
            1356            1760     296.709E-03     304.987E-03
            1339            1760     296.709E-03     304.987E-03
            1340            1760     296.709E-03     304.987E-03
            1340            1761     251.506E-03     259.820E-03
            1356            1761     251.506E-03     259.820E-03
            1357            1761     251.506E-03     259.820E-03
            1341            1761     251.506E-03     259.820E-03
            1342            1762     207.420E-03     216.255E-03
            1358            1762     207.420E-03     216.255E-03
            1341            1762     207.420E-03     216.255E-03
            1357            1762     207.420E-03     216.255E-03
            1358            1763     165.214E-03     176.204E-03
            1359            1763     165.214E-03     176.204E-03
            1343            1763     165.214E-03     176.204E-03
            1342            1763     165.214E-03     176.204E-03
            1360            1764     129.305E-03     139.662E-03
            1359            1764     129.305E-03     139.662E-03
            1343            1764     129.305E-03     139.662E-03
            1344            1764     129.305E-03     139.662E-03
            1361            1765     105.171E-03     107.023E-03
            1345            1765     105.171E-03     107.023E-03
            1360            1765     105.171E-03     107.023E-03
            1344            1765     105.171E-03     107.023E-03
            1346            1766     753.910E-03     772.031E-03
            1347            1766     753.910E-03     772.031E-03
            1362            1766     753.910E-03     772.031E-03
            1363            1766     753.910E-03     772.031E-03
            1348            1767     696.867E-03     716.425E-03
            1363            1767     696.867E-03     716.425E-03
            1364            1767     696.867E-03     716.425E-03
            1347            1767     696.867E-03     716.425E-03
            1348            1768     636.133E-03     657.627E-03
            1349            1768     636.133E-03     657.627E-03
            1364            1768     636.133E-03     657.627E-03
            1365            1768     636.133E-03     657.627E-03
            1349            1769     579.268E-03     600.724E-03
            1365            1769     579.268E-03     600.724E-03
            1350            1769     579.268E-03     600.724E-03
            1366            1769     579.268E-03     600.724E-03
            1351            1770     528.271E-03     547.912E-03
            1367            1770     528.271E-03     547.912E-03
            1366            1770     528.271E-03     547.912E-03
            1350            1770     528.271E-03     547.912E-03
            1352            1771     478.415E-03     496.685E-03
            1367            1771     478.415E-03     496.685E-03
            1368            1771     478.415E-03     496.685E-03
            1351            1771     478.415E-03     496.685E-03
            1352            1772     429.611E-03     447.170E-03
            1369            1772     429.611E-03     447.170E-03
            1353            1772     429.611E-03     447.170E-03
            1368            1772     429.611E-03     447.170E-03
            1353            1773     381.433E-03     398.472E-03
            1354            1773     381.433E-03     398.472E-03
            1369            1773     381.433E-03     398.472E-03
            1370            1773     381.433E-03     398.472E-03
            1370            1774     333.712E-03     350.489E-03
            1354            1774     333.712E-03     350.489E-03
            1371            1774     333.712E-03     350.489E-03
            1355            1774     333.712E-03     350.489E-03
            1355            1775     286.538E-03     303.101E-03
            1356            1775     286.538E-03     303.101E-03
            1371            1775     286.538E-03     303.101E-03
            1372            1775     286.538E-03     303.101E-03
            1356            1776     239.887E-03     256.347E-03
            1357            1776     239.887E-03     256.347E-03
            1372            1776     239.887E-03     256.347E-03
            1373            1776     239.887E-03     256.347E-03
            1357            1777     194.029E-03     210.679E-03
            1358            1777     194.029E-03     210.679E-03
            1373            1777     194.029E-03     210.679E-03
            1374            1777     194.029E-03     210.679E-03
            1375            1778     150.094E-03     166.388E-03
            1358            1778     150.094E-03     166.388E-03
            1359            1778     150.094E-03     166.388E-03
            1374            1778     150.094E-03     166.388E-03
            1375            1779     110.294E-03     123.449E-03
            1360            1779     110.294E-03     123.449E-03
            1359            1779     110.294E-03     123.449E-03
            1376            1779     110.294E-03     123.449E-03
            1376            1780     81.2419E-03     86.4484E-03
            1377            1780     81.2419E-03     86.4484E-03
            1360            1780     81.2419E-03     86.4484E-03
            1361            1780     81.2419E-03     86.4484E-03
            1379            1781     798.922E-03     808.728E-03
            1362            1781     798.922E-03     808.728E-03
            1378            1781     798.922E-03     808.728E-03
            1363            1781     798.922E-03     808.728E-03
            1363            1782     706.874E-03     728.067E-03
            1380            1782     706.874E-03     728.067E-03
            1364            1782     706.874E-03     728.067E-03
            1379            1782     706.874E-03     728.067E-03
            1381            1783     625.719E-03     653.020E-03
            1380            1783     625.719E-03     653.020E-03
            1364            1783     625.719E-03     653.020E-03
            1365            1783     625.719E-03     653.020E-03
            1382            1784     567.088E-03     594.420E-03
            1381            1784     567.088E-03     594.420E-03
            1365            1784     567.088E-03     594.420E-03
            1366            1784     567.088E-03     594.420E-03
            1383            1785     515.386E-03     541.790E-03
            1366            1785     515.386E-03     541.790E-03
            1367            1785     515.386E-03     541.790E-03
            1382            1785     515.386E-03     541.790E-03
            1383            1786     466.237E-03     492.264E-03
            1384            1786     466.237E-03     492.264E-03
            1367            1786     466.237E-03     492.264E-03
            1368            1786     466.237E-03     492.264E-03
            1368            1787     418.351E-03     443.936E-03
            1384            1787     418.351E-03     443.936E-03
            1369            1787     418.351E-03     443.936E-03
            1385            1787     418.351E-03     443.936E-03
            1369            1788     370.688E-03     396.179E-03
            1386            1788     370.688E-03     396.179E-03
            1385            1788     370.688E-03     396.179E-03
            1370            1788     370.688E-03     396.179E-03
            1370            1789     323.304E-03     348.661E-03
            1387            1789     323.304E-03     348.661E-03
            1371            1789     323.304E-03     348.661E-03
            1386            1789     323.304E-03     348.661E-03
            1371            1790     276.023E-03     301.250E-03
            1387            1790     276.023E-03     301.250E-03
            1372            1790     276.023E-03     301.250E-03
            1388            1790     276.023E-03     301.250E-03
            1373            1791     228.992E-03     254.024E-03
            1372            1791     228.992E-03     254.024E-03
            1389            1791     228.992E-03     254.024E-03
            1388            1791     228.992E-03     254.024E-03
            1390            1792     182.400E-03     207.045E-03
            1374            1792     182.400E-03     207.045E-03
            1389            1792     182.400E-03     207.045E-03
            1373            1792     182.400E-03     207.045E-03
            1391            1793     137.004E-03     159.826E-03
            1375            1793     137.004E-03     159.826E-03
            1390            1793     137.004E-03     159.826E-03
            1374            1793     137.004E-03     159.826E-03
            1375            1794     93.8791E-03     113.593E-03
            1391            1794     93.8791E-03     113.593E-03
            1376            1794     93.8791E-03     113.593E-03
            1392            1794     93.8791E-03     113.593E-03
            1376            1795     58.5399E-03     69.6478E-03
            1377            1795     58.5399E-03     69.6478E-03
            1393            1795     58.5399E-03     69.6478E-03
            1392            1795     58.5399E-03     69.6478E-03
            1394            1796     810.139E-03     832.545E-03
            1378            1796     810.139E-03     832.545E-03
            1395            1796     810.139E-03     832.545E-03
            1379            1796     810.139E-03     832.545E-03
            1395            1797     684.579E-03     714.122E-03
            1379            1797     684.579E-03     714.122E-03
            1396            1797     684.579E-03     714.122E-03
            1380            1797     684.579E-03     714.122E-03
            1380            1798     606.822E-03     636.809E-03
            1381            1798     606.822E-03     636.809E-03
            1396            1798     606.822E-03     636.809E-03
            1397            1798     606.822E-03     636.809E-03
            1382            1799     549.670E-03     580.827E-03
            1381            1799     549.670E-03     580.827E-03
            1397            1799     549.670E-03     580.827E-03
            1398            1799     549.670E-03     580.827E-03
            1398            1800     498.655E-03     531.085E-03
            1383            1800     498.655E-03     531.085E-03
            1399            1800     498.655E-03     531.085E-03
            1382            1800     498.655E-03     531.085E-03
            1399            1801     451.417E-03     484.584E-03
            1400            1801     451.417E-03     484.584E-03
            1383            1801     451.417E-03     484.584E-03
            1384            1801     451.417E-03     484.584E-03
            1384            1802     404.847E-03     438.582E-03
            1401            1802     404.847E-03     438.582E-03
            1400            1802     404.847E-03     438.582E-03
            1385            1802     404.847E-03     438.582E-03
            1386            1803     358.669E-03     392.697E-03
            1401            1803     358.669E-03     392.697E-03
            1402            1803     358.669E-03     392.697E-03
            1385            1803     358.669E-03     392.697E-03
            1403            1804     312.303E-03     346.497E-03
            1402            1804     312.303E-03     346.497E-03
            1386            1804     312.303E-03     346.497E-03
            1387            1804     312.303E-03     346.497E-03
            1388            1805     265.808E-03     300.052E-03
            1387            1805     265.808E-03     300.052E-03
            1404            1805     265.808E-03     300.052E-03
            1403            1805     265.808E-03     300.052E-03
            1404            1806     219.248E-03     253.313E-03
            1388            1806     219.248E-03     253.313E-03
            1405            1806     219.248E-03     253.313E-03
            1389            1806     219.248E-03     253.313E-03
            1406            1807     172.904E-03     206.088E-03
            1390            1807     172.904E-03     206.088E-03
            1405            1807     172.904E-03     206.088E-03
            1389            1807     172.904E-03     206.088E-03
            1407            1808     126.869E-03     158.514E-03
            1406            1808     126.869E-03     158.514E-03
            1391            1808     126.869E-03     158.514E-03
            1390            1808     126.869E-03     158.514E-03
            1407            1809     82.4555E-03     109.865E-03
            1392            1809     82.4555E-03     109.865E-03
            1391            1809     82.4555E-03     109.865E-03
            1408            1809     82.4555E-03     109.865E-03
            1409            1810     41.3074E-03     61.5457E-03
            1408            1810     41.3074E-03     61.5457E-03
            1392            1810     41.3074E-03     61.5457E-03
            1393            1810     41.3074E-03     61.5457E-03
            1411            1811     816.539E-03     830.110E-03
            1394            1811     816.539E-03     830.110E-03
            1410            1811     816.539E-03     830.110E-03
            1395            1811     816.539E-03     830.110E-03
            1411            1812     750.002E-03     752.706E-03
            1412            1812     750.002E-03     752.706E-03
            1396            1812     750.002E-03     752.706E-03
            1395            1812     750.002E-03     752.706E-03
            1396            1813     699.349E-03     704.643E-03
            1397            1813     699.349E-03     704.643E-03
            1412            1813     699.349E-03     704.643E-03
            1413            1813     699.349E-03     704.643E-03
            1398            1814     649.321E-03     658.724E-03
            1413            1814     649.321E-03     658.724E-03
            1414            1814     649.321E-03     658.724E-03
            1397            1814     649.321E-03     658.724E-03
            1414            1815     600.351E-03     612.385E-03
            1415            1815     600.351E-03     612.385E-03
            1399            1815     600.351E-03     612.385E-03
            1398            1815     600.351E-03     612.385E-03
            1399            1816     550.395E-03     564.781E-03
            1415            1816     550.395E-03     564.781E-03
            1416            1816     550.395E-03     564.781E-03
            1400            1816     550.395E-03     564.781E-03
            1416            1817     500.188E-03     515.516E-03
            1417            1817     500.188E-03     515.516E-03
            1401            1817     500.188E-03     515.516E-03
            1400            1817     500.188E-03     515.516E-03
            1401            1818     449.183E-03     465.358E-03
            1417            1818     449.183E-03     465.358E-03
            1418            1818     449.183E-03     465.358E-03
            1402            1818     449.183E-03     465.358E-03
            1403            1819     398.052E-03     414.602E-03
            1418            1819     398.052E-03     414.602E-03
            1419            1819     398.052E-03     414.602E-03
            1402            1819     398.052E-03     414.602E-03
            1420            1820     346.827E-03     363.690E-03
            1403            1820     346.827E-03     363.690E-03
            1419            1820     346.827E-03     363.690E-03
            1404            1820     346.827E-03     363.690E-03
            1405            1821     296.207E-03     313.107E-03
            1404            1821     296.207E-03     313.107E-03
            1420            1821     296.207E-03     313.107E-03
            1421            1821     296.207E-03     313.107E-03
            1422            1822     246.785E-03     263.395E-03
            1406            1822     246.785E-03     263.395E-03
            1405            1822     246.785E-03     263.395E-03
            1421            1822     246.785E-03     263.395E-03
            1406            1823     199.772E-03     215.274E-03
            1422            1823     199.772E-03     215.274E-03
            1407            1823     199.772E-03     215.274E-03
            1423            1823     199.772E-03     215.274E-03
            1424            1824     156.305E-03     171.327E-03
            1408            1824     156.305E-03     171.327E-03
            1423            1824     156.305E-03     171.327E-03
            1407            1824     156.305E-03     171.327E-03
            1408            1825     114.609E-03     136.952E-03
            1409            1825     114.609E-03     136.952E-03
            1425            1825     114.609E-03     136.952E-03
            1424            1825     114.609E-03     136.952E-03
            1410            1826     872.636E-03     861.542E-03
            1411            1826     872.636E-03     861.542E-03
            1427            1826     872.636E-03     861.542E-03
            1426            1826     872.636E-03     861.542E-03
            1412            1827     856.022E-03     847.727E-03
            1427            1827     856.022E-03     847.727E-03
            1428            1827     856.022E-03     847.727E-03
            1411            1827     856.022E-03     847.727E-03
            1412            1828     821.516E-03     812.663E-03
            1428            1828     821.516E-03     812.663E-03
            1429            1828     821.516E-03     812.663E-03
            1413            1828     821.516E-03     812.663E-03
            1429            1829     773.922E-03     767.275E-03
            1414            1829     773.922E-03     767.275E-03
            1430            1829     773.922E-03     767.275E-03
            1413            1829     773.922E-03     767.275E-03
            1415            1830     720.188E-03     715.263E-03
            1431            1830     720.188E-03     715.263E-03
            1430            1830     720.188E-03     715.263E-03
            1414            1830     720.188E-03     715.263E-03
            1415            1831     663.010E-03     659.214E-03
            1432            1831     663.010E-03     659.214E-03
            1431            1831     663.010E-03     659.214E-03
            1416            1831     663.010E-03     659.214E-03
            1417            1832     604.125E-03     601.400E-03
            1416            1832     604.125E-03     601.400E-03
            1432            1832     604.125E-03     601.400E-03
            1433            1832     604.125E-03     601.400E-03
            1433            1833     544.893E-03     542.539E-03
            1434            1833     544.893E-03     542.539E-03
            1417            1833     544.893E-03     542.539E-03
            1418            1833     544.893E-03     542.539E-03
            1434            1834     485.511E-03     483.587E-03
            1435            1834     485.511E-03     483.587E-03
            1419            1834     485.511E-03     483.587E-03
            1418            1834     485.511E-03     483.587E-03
            1419            1835     426.835E-03     425.046E-03
            1435            1835     426.835E-03     425.046E-03
            1436            1835     426.835E-03     425.046E-03
            1420            1835     426.835E-03     425.046E-03
            1436            1836     369.247E-03     367.699E-03
            1437            1836     369.247E-03     367.699E-03
            1421            1836     369.247E-03     367.699E-03
            1420            1836     369.247E-03     367.699E-03
            1437            1837     314.038E-03     312.665E-03
            1421            1837     314.038E-03     312.665E-03
            1422            1837     314.038E-03     312.665E-03
            1438            1837     314.038E-03     312.665E-03
            1439            1838     262.168E-03     262.008E-03
            1422            1838     262.168E-03     262.008E-03
            1438            1838     262.168E-03     262.008E-03
            1423            1838     262.168E-03     262.008E-03
            1423            1839     215.634E-03     221.647E-03
            1439            1839     215.634E-03     221.647E-03
            1440            1839     215.634E-03     221.647E-03
            1424            1839     215.634E-03     221.647E-03
            1440            1840     179.499E-03     201.450E-03
            1425            1840     179.499E-03     201.450E-03
            1441            1840     179.499E-03     201.450E-03
            1424            1840     179.499E-03     201.450E-03
            1443            1841     936.641E-03     950.066E-03
            1427            1841     936.641E-03     950.066E-03
            1426            1841     936.641E-03     950.066E-03
            1442            1841     936.641E-03     950.066E-03
            1443            1842     901.460E-03     915.520E-03
            1428            1842     901.460E-03     915.520E-03
            1427            1842     901.460E-03     915.520E-03
            1444            1842     901.460E-03     915.520E-03
            1445            1843     855.177E-03     866.464E-03
            1428            1843     855.177E-03     866.464E-03
            1429            1843     855.177E-03     866.464E-03
            1444            1843     855.177E-03     866.464E-03
            1429            1844     798.374E-03     806.284E-03
            1446            1844     798.374E-03     806.284E-03
            1445            1844     798.374E-03     806.284E-03
            1430            1844     798.374E-03     806.284E-03
            1447            1845     735.640E-03     742.007E-03
            1430            1845     735.640E-03     742.007E-03
            1431            1845     735.640E-03     742.007E-03
            1446            1845     735.640E-03     742.007E-03
            1448            1846     670.911E-03     677.012E-03
            1431            1846     670.911E-03     677.012E-03
            1432            1846     670.911E-03     677.012E-03
            1447            1846     670.911E-03     677.012E-03
            1449            1847     606.413E-03     612.102E-03
            1448            1847     606.413E-03     612.102E-03
            1433            1847     606.413E-03     612.102E-03
            1432            1847     606.413E-03     612.102E-03
            1450            1848     542.048E-03     547.729E-03
            1434            1848     542.048E-03     547.729E-03
            1449            1848     542.048E-03     547.729E-03
            1433            1848     542.048E-03     547.729E-03
            1434            1849     478.449E-03     483.984E-03
            1451            1849     478.449E-03     483.984E-03
            1435            1849     478.449E-03     483.984E-03
            1450            1849     478.449E-03     483.984E-03
            1436            1850     415.632E-03     421.066E-03
            1451            1850     415.632E-03     421.066E-03
            1435            1850     415.632E-03     421.066E-03
            1452            1850     415.632E-03     421.066E-03
            1452            1851     353.900E-03     359.405E-03
            1437            1851     353.900E-03     359.405E-03
            1436            1851     353.900E-03     359.405E-03
            1453            1851     353.900E-03     359.405E-03
            1454            1852     293.740E-03     300.012E-03
            1453            1852     293.740E-03     300.012E-03
            1438            1852     293.740E-03     300.012E-03
            1437            1852     293.740E-03     300.012E-03
            1454            1853     235.917E-03     244.870E-03
            1439            1853     235.917E-03     244.870E-03
            1455            1853     235.917E-03     244.870E-03
            1438            1853     235.917E-03     244.870E-03
            1455            1854     183.013E-03     200.024E-03
            1439            1854     183.013E-03     200.024E-03
            1440            1854     183.013E-03     200.024E-03
            1456            1854     183.013E-03     200.024E-03
            1440            1855     149.289E-03     164.472E-03
            1456            1855     149.289E-03     164.472E-03
            1441            1855     149.289E-03     164.472E-03
            1457            1855     149.289E-03     164.472E-03
            1442            1856     994.917E-03         1.01400
            1458            1856     994.917E-03         1.01400
            1443            1856     994.917E-03         1.01400
            1459            1856     994.917E-03         1.01400
            1459            1857     938.121E-03     964.336E-03
            1460            1857     938.121E-03     964.336E-03
            1444            1857     938.121E-03     964.336E-03
            1443            1857     938.121E-03     964.336E-03
            1445            1858     877.948E-03     900.977E-03
            1444            1858     877.948E-03     900.977E-03
            1460            1858     877.948E-03     900.977E-03
            1461            1858     877.948E-03     900.977E-03
            1446            1859     810.185E-03     829.808E-03
            1461            1859     810.185E-03     829.808E-03
            1462            1859     810.185E-03     829.808E-03
            1445            1859     810.185E-03     829.808E-03
            1462            1860     740.534E-03     757.908E-03
            1463            1860     740.534E-03     757.908E-03
            1447            1860     740.534E-03     757.908E-03
            1446            1860     740.534E-03     757.908E-03
            1447            1861     672.211E-03     687.717E-03
            1464            1861     672.211E-03     687.717E-03
            1448            1861     672.211E-03     687.717E-03
            1463            1861     672.211E-03     687.717E-03
            1448            1862     604.251E-03     618.815E-03
            1464            1862     604.251E-03     618.815E-03
            1449            1862     604.251E-03     618.815E-03
            1465            1862     604.251E-03     618.815E-03
            1466            1863     537.235E-03     551.205E-03
            1450            1863     537.235E-03     551.205E-03
            1465            1863     537.235E-03     551.205E-03
            1449            1863     537.235E-03     551.205E-03
            1466            1864     470.933E-03     484.535E-03
            1467            1864     470.933E-03     484.535E-03
            1451            1864     470.933E-03     484.535E-03
            1450            1864     470.933E-03     484.535E-03
            1452            1865     405.363E-03     418.772E-03
            1467            1865     405.363E-03     418.772E-03
            1468            1865     405.363E-03     418.772E-03
            1451            1865     405.363E-03     418.772E-03
            1468            1866     340.632E-03     354.131E-03
            1469            1866     340.632E-03     354.131E-03
            1452            1866     340.632E-03     354.131E-03
            1453            1866     340.632E-03     354.131E-03
            1453            1867     276.787E-03     291.096E-03
            1454            1867     276.787E-03     291.096E-03
            1469            1867     276.787E-03     291.096E-03
            1470            1867     276.787E-03     291.096E-03
            1454            1868     214.262E-03     232.030E-03
            1455            1868     214.262E-03     232.030E-03
            1471            1868     214.262E-03     232.030E-03
            1470            1868     214.262E-03     232.030E-03
            1471            1869     158.241E-03     176.951E-03
            1472            1869     158.241E-03     176.951E-03
            1455            1869     158.241E-03     176.951E-03
            1456            1869     158.241E-03     176.951E-03
            1473            1870     117.540E-03     126.260E-03
            1472            1870     117.540E-03     126.260E-03
            1457            1870     117.540E-03     126.260E-03
            1456            1870     117.540E-03     126.260E-03
            1459            1871         1.04174         1.06622
            1474            1871         1.04174         1.06622
            1475            1871         1.04174         1.06622
            1458            1871         1.04174         1.06622
            1476            1872     967.003E-03     994.054E-03
            1475            1872     967.003E-03     994.054E-03
            1460            1872     967.003E-03     994.054E-03
            1459            1872     967.003E-03     994.054E-03
            1461            1873     884.826E-03     913.642E-03
            1477            1873     884.826E-03     913.642E-03
            1476            1873     884.826E-03     913.642E-03
            1460            1873     884.826E-03     913.642E-03
            1461            1874     806.231E-03     834.583E-03
            1462            1874     806.231E-03     834.583E-03
            1478            1874     806.231E-03     834.583E-03
            1477            1874     806.231E-03     834.583E-03
            1463            1875     734.774E-03     760.657E-03
            1478            1875     734.774E-03     760.657E-03
            1479            1875     734.774E-03     760.657E-03
            1462            1875     734.774E-03     760.657E-03
            1464            1876     665.028E-03     689.023E-03
            1479            1876     665.028E-03     689.023E-03
            1463            1876     665.028E-03     689.023E-03
            1480            1876     665.028E-03     689.023E-03
            1465            1877     596.586E-03     619.609E-03
            1481            1877     596.586E-03     619.609E-03
            1480            1877     596.586E-03     619.609E-03
            1464            1877     596.586E-03     619.609E-03
            1465            1878     528.917E-03     551.261E-03
            1482            1878     528.917E-03     551.261E-03
            1481            1878     528.917E-03     551.261E-03
            1466            1878     528.917E-03     551.261E-03
            1482            1879     461.734E-03     483.753E-03
            1483            1879     461.734E-03     483.753E-03
            1466            1879     461.734E-03     483.753E-03
            1467            1879     461.734E-03     483.753E-03
            1468            1880     395.066E-03     416.869E-03
            1483            1880     395.066E-03     416.869E-03
            1484            1880     395.066E-03     416.869E-03
            1467            1880     395.066E-03     416.869E-03
            1484            1881     328.780E-03     350.598E-03
            1485            1881     328.780E-03     350.598E-03
            1468            1881     328.780E-03     350.598E-03
            1469            1881     328.780E-03     350.598E-03
            1470            1882     262.939E-03     285.355E-03
            1485            1882     262.939E-03     285.355E-03
            1486            1882     262.939E-03     285.355E-03
            1469            1882     262.939E-03     285.355E-03
            1486            1883     198.205E-03     221.681E-03
            1487            1883     198.205E-03     221.681E-03
            1470            1883     198.205E-03     221.681E-03
            1471            1883     198.205E-03     221.681E-03
            1487            1884     136.455E-03     159.229E-03
            1471            1884     136.455E-03     159.229E-03
            1488            1884     136.455E-03     159.229E-03
            1472            1884     136.455E-03     159.229E-03
            1488            1885     86.7811E-03     101.822E-03
            1473            1885     86.7811E-03     101.822E-03
            1489            1885     86.7811E-03     101.822E-03
            1472            1885     86.7811E-03     101.822E-03
            1474            1886         1.08444         1.09836
            1475            1886         1.08444         1.09836
            1490            1886         1.08444         1.09836
            1491            1886         1.08444         1.09836
            1475            1887     972.322E-03     999.402E-03
            1492            1887     972.322E-03     999.402E-03
            1476            1887     972.322E-03     999.402E-03
            1491            1887     972.322E-03     999.402E-03
            1493            1888     869.072E-03     902.821E-03
            1477            1888     869.072E-03     902.821E-03
            1476            1888     869.072E-03     902.821E-03
            1492            1888     869.072E-03     902.821E-03
            1494            1889     790.525E-03     823.747E-03
            1478            1889     790.525E-03     823.747E-03
            1493            1889     790.525E-03     823.747E-03
            1477            1889     790.525E-03     823.747E-03
            1479            1890     719.280E-03     751.210E-03
            1494            1890     719.280E-03     751.210E-03
            1478            1890     719.280E-03     751.210E-03
            1495            1890     719.280E-03     751.210E-03
            1495            1891     650.892E-03     682.341E-03
            1479            1891     650.892E-03     682.341E-03
            1496            1891     650.892E-03     682.341E-03
            1480            1891     650.892E-03     682.341E-03
            1496            1892     583.988E-03     614.864E-03
            1481            1892     583.988E-03     614.864E-03
            1480            1892     583.988E-03     614.864E-03
            1497            1892     583.988E-03     614.864E-03
            1482            1893     517.304E-03     548.088E-03
            1497            1893     517.304E-03     548.088E-03
            1481            1893     517.304E-03     548.088E-03
            1498            1893     517.304E-03     548.088E-03
            1482            1894     450.923E-03     481.557E-03
            1499            1894     450.923E-03     481.557E-03
            1483            1894     450.923E-03     481.557E-03
            1498            1894     450.923E-03     481.557E-03
            1484            1895     384.582E-03     415.100E-03
            1500            1895     384.582E-03     415.100E-03
            1483            1895     384.582E-03     415.100E-03
            1499            1895     384.582E-03     415.100E-03
            1500            1896     318.361E-03     348.747E-03
            1501            1896     318.361E-03     348.747E-03
            1485            1896     318.361E-03     348.747E-03
            1484            1896     318.361E-03     348.747E-03
            1486            1897     252.303E-03     282.607E-03
            1502            1897     252.303E-03     282.607E-03
            1485            1897     252.303E-03     282.607E-03
            1501            1897     252.303E-03     282.607E-03
            1503            1898     187.009E-03     215.898E-03
            1487            1898     187.009E-03     215.898E-03
            1502            1898     187.009E-03     215.898E-03
            1486            1898     187.009E-03     215.898E-03
            1488            1899     122.111E-03     150.591E-03
            1503            1899     122.111E-03     150.591E-03
            1504            1899     122.111E-03     150.591E-03
            1487            1899     122.111E-03     150.591E-03
            1488            1900     61.1644E-03     87.8585E-03
            1505            1900     61.1644E-03     87.8585E-03
            1489            1900     61.1644E-03     87.8585E-03
            1504            1900     61.1644E-03     87.8585E-03
            1491            1901         1.08714         1.11131
            1507            1901         1.08714         1.11131
            1506            1901         1.08714         1.11131
            1490            1901         1.08714         1.11131
            1492            1902     939.031E-03     972.073E-03
            1491            1902     939.031E-03     972.073E-03
            1508            1902     939.031E-03     972.073E-03
            1507            1902     939.031E-03     972.073E-03
            1493            1903     842.021E-03     875.549E-03
            1492            1903     842.021E-03     875.549E-03
            1508            1903     842.021E-03     875.549E-03
            1509            1903     842.021E-03     875.549E-03
            1510            1904     766.782E-03     802.037E-03
            1509            1904     766.782E-03     802.037E-03
            1493            1904     766.782E-03     802.037E-03
            1494            1904     766.782E-03     802.037E-03
            1511            1905     697.787E-03     734.794E-03
            1510            1905     697.787E-03     734.794E-03
            1494            1905     697.787E-03     734.794E-03
            1495            1905     697.787E-03     734.794E-03
            1511            1906     632.691E-03     670.740E-03
            1495            1906     632.691E-03     670.740E-03
            1512            1906     632.691E-03     670.740E-03
            1496            1906     632.691E-03     670.740E-03
            1512            1907     568.155E-03     607.023E-03
            1496            1907     568.155E-03     607.023E-03
            1497            1907     568.155E-03     607.023E-03
            1513            1907     568.155E-03     607.023E-03
            1514            1908     503.989E-03     543.239E-03
            1497            1908     503.989E-03     543.239E-03
            1513            1908     503.989E-03     543.239E-03
            1498            1908     503.989E-03     543.239E-03
            1498            1909     439.508E-03     478.994E-03
            1515            1909     439.508E-03     478.994E-03
            1499            1909     439.508E-03     478.994E-03
            1514            1909     439.508E-03     478.994E-03
            1499            1910     374.836E-03     414.370E-03
            1515            1910     374.836E-03     414.370E-03
            1516            1910     374.836E-03     414.370E-03
            1500            1910     374.836E-03     414.370E-03
            1500            1911     310.034E-03     349.356E-03
            1516            1911     310.034E-03     349.356E-03
            1517            1911     310.034E-03     349.356E-03
            1501            1911     310.034E-03     349.356E-03
            1517            1912     245.498E-03     283.734E-03
            1518            1912     245.498E-03     283.734E-03
            1502            1912     245.498E-03     283.734E-03
            1501            1912     245.498E-03     283.734E-03
            1502            1913     181.321E-03     217.715E-03
            1518            1913     181.321E-03     217.715E-03
            1503            1913     181.321E-03     217.715E-03
            1519            1913     181.321E-03     217.715E-03
            1519            1914     119.147E-03     150.756E-03
            1520            1914     119.147E-03     150.756E-03
            1504            1914     119.147E-03     150.756E-03
            1503            1914     119.147E-03     150.756E-03
            1521            1915     57.7291E-03     87.8251E-03
            1505            1915     57.7291E-03     87.8251E-03
            1520            1915     57.7291E-03     87.8251E-03
            1504            1915     57.7291E-03     87.8251E-03
            1507            1916         1.08536         1.10443
            1523            1916         1.08536         1.10443
            1506            1916         1.08536         1.10443
            1522            1916         1.08536         1.10443
            1508            1917     998.155E-03         1.00337
            1524            1917     998.155E-03         1.00337
            1507            1917     998.155E-03         1.00337
            1523            1917     998.155E-03         1.00337
            1508            1918     930.337E-03     938.299E-03
            1524            1918     930.337E-03     938.299E-03
            1525            1918     930.337E-03     938.299E-03
            1509            1918     930.337E-03     938.299E-03
            1526            1919     861.623E-03     874.786E-03
            1525            1919     861.623E-03     874.786E-03
            1510            1919     861.623E-03     874.786E-03
            1509            1919     861.623E-03     874.786E-03
            1526            1920     794.934E-03     810.996E-03
            1527            1920     794.934E-03     810.996E-03
            1511            1920     794.934E-03     810.996E-03
            1510            1920     794.934E-03     810.996E-03
            1512            1921     726.853E-03     745.295E-03
            1528            1921     726.853E-03     745.295E-03
            1527            1921     726.853E-03     745.295E-03
            1511            1921     726.853E-03     745.295E-03
            1512            1922     658.764E-03     678.050E-03
            1528            1922     658.764E-03     678.050E-03
            1513            1922     658.764E-03     678.050E-03
            1529            1922     658.764E-03     678.050E-03
            1530            1923     589.850E-03     609.931E-03
            1514            1923     589.850E-03     609.931E-03
            1529            1923     589.850E-03     609.931E-03
            1513            1923     589.850E-03     609.931E-03
            1530            1924     520.698E-03     540.944E-03
            1531            1924     520.698E-03     540.944E-03
            1515            1924     520.698E-03     540.944E-03
            1514            1924     520.698E-03     540.944E-03
            1531            1925     451.332E-03     471.944E-03
            1516            1925     451.332E-03     471.944E-03
            1532            1925     451.332E-03     471.944E-03
            1515            1925     451.332E-03     471.944E-03
            1533            1926     382.494E-03     403.039E-03
            1516            1926     382.494E-03     403.039E-03
            1517            1926     382.494E-03     403.039E-03
            1532            1926     382.494E-03     403.039E-03
            1533            1927     314.957E-03     335.109E-03
            1517            1927     314.957E-03     335.109E-03
            1534            1927     314.957E-03     335.109E-03
            1518            1927     314.957E-03     335.109E-03
            1518            1928     250.262E-03     268.632E-03
            1519            1928     250.262E-03     268.632E-03
            1534            1928     250.262E-03     268.632E-03
            1535            1928     250.262E-03     268.632E-03
            1535            1929     190.677E-03     207.168E-03
            1519            1929     190.677E-03     207.168E-03
            1520            1929     190.677E-03     207.168E-03
            1536            1929     190.677E-03     207.168E-03
            1536            1930     136.233E-03     158.798E-03
            1521            1930     136.233E-03     158.798E-03
            1520            1930     136.233E-03     158.798E-03
            1537            1930     136.233E-03     158.798E-03
            1539            1931         1.14865         1.14249
            1523            1931         1.14865         1.14249
            1538            1931         1.14865         1.14249
            1522            1931         1.14865         1.14249
            1524            1932         1.11099         1.10695
            1540            1932         1.11099         1.10695
            1523            1932         1.11099         1.10695
            1539            1932         1.11099         1.10695
            1524            1933         1.05342         1.05078
            1540            1933         1.05342         1.05078
            1525            1933         1.05342         1.05078
            1541            1933         1.05342         1.05078
            1525            1934     985.793E-03     984.133E-03
            1541            1934     985.793E-03     984.133E-03
            1542            1934     985.793E-03     984.133E-03
            1526            1934     985.793E-03     984.133E-03
            1527            1935     911.438E-03     911.195E-03
            1526            1935     911.438E-03     911.195E-03
            1543            1935     911.438E-03     911.195E-03
            1542            1935     911.438E-03     911.195E-03
            1528            1936     834.797E-03     835.749E-03
            1543            1936     834.797E-03     835.749E-03
            1544            1936     834.797E-03     835.749E-03
            1527            1936     834.797E-03     835.749E-03
            1545            1937     757.497E-03     758.709E-03
            1528            1937     757.497E-03     758.709E-03
            1544            1937     757.497E-03     758.709E-03
            1529            1937     757.497E-03     758.709E-03
            1529            1938     679.615E-03     681.211E-03
            1545            1938     679.615E-03     681.211E-03
            1546            1938     679.615E-03     681.211E-03
            1530            1938     679.615E-03     681.211E-03
            1531            1939     601.921E-03     603.531E-03
            1530            1939     601.921E-03     603.531E-03
            1547            1939     601.921E-03     603.531E-03
            1546            1939     601.921E-03     603.531E-03
            1532            1940     524.579E-03     526.335E-03
            1547            1940     524.579E-03     526.335E-03
            1548            1940     524.579E-03     526.335E-03
            1531            1940     524.579E-03     526.335E-03
            1548            1941     448.310E-03     450.075E-03
            1532            1941     448.310E-03     450.075E-03
            1549            1941     448.310E-03     450.075E-03
            1533            1941     448.310E-03     450.075E-03
            1533            1942     374.143E-03     376.096E-03
            1549            1942     374.143E-03     376.096E-03
            1550            1942     374.143E-03     376.096E-03
            1534            1942     374.143E-03     376.096E-03
            1535            1943     303.549E-03     306.078E-03
            1551            1943     303.549E-03     306.078E-03
            1550            1943     303.549E-03     306.078E-03
            1534            1943     303.549E-03     306.078E-03
            1551            1944     239.188E-03     246.366E-03
            1552            1944     239.188E-03     246.366E-03
            1535            1944     239.188E-03     246.366E-03
            1536            1944     239.188E-03     246.366E-03
            1537            1945     187.720E-03     211.963E-03
            1553            1945     187.720E-03     211.963E-03
            1552            1945     187.720E-03     211.963E-03
            1536            1945     187.720E-03     211.963E-03
            1555            1946         1.22244         1.23932
            1538            1946         1.22244         1.23932
            1554            1946         1.22244         1.23932
            1539            1946         1.22244         1.23932
            1555            1947         1.16097         1.18490
            1540            1947         1.16097         1.18490
            1556            1947         1.16097         1.18490
            1539            1947         1.16097         1.18490
            1541            1948         1.08900         1.10710
            1557            1948         1.08900         1.10710
            1540            1948         1.08900         1.10710
            1556            1948         1.08900         1.10710
            1541            1949         1.00704         1.02161
            1557            1949         1.00704         1.02161
            1558            1949         1.00704         1.02161
            1542            1949         1.00704         1.02161
            1542            1950     922.419E-03     935.752E-03
            1543            1950     922.419E-03     935.752E-03
            1559            1950     922.419E-03     935.752E-03
            1558            1950     922.419E-03     935.752E-03
            1543            1951     838.956E-03     851.358E-03
            1559            1951     838.956E-03     851.358E-03
            1560            1951     838.956E-03     851.358E-03
            1544            1951     838.956E-03     851.358E-03
            1545            1952     755.647E-03     767.868E-03
            1561            1952     755.647E-03     767.868E-03
            1544            1952     755.647E-03     767.868E-03
            1560            1952     755.647E-03     767.868E-03
            1561            1953     673.222E-03     685.219E-03
            1545            1953     673.222E-03     685.219E-03
            1562            1953     673.222E-03     685.219E-03
            1546            1953     673.222E-03     685.219E-03
            1547            1954     591.307E-03     603.221E-03
            1563            1954     591.307E-03     603.221E-03
            1546            1954     591.307E-03     603.221E-03
            1562            1954     591.307E-03     603.221E-03
            1547            1955     510.224E-03     521.820E-03
            1564            1955     510.224E-03     521.820E-03
            1548            1955     510.224E-03     521.820E-03
            1563            1955     510.224E-03     521.820E-03
            1565            1956     429.922E-03     441.327E-03
            1548            1956     429.922E-03     441.327E-03
            1549            1956     429.922E-03     441.327E-03
            1564            1956     429.922E-03     441.327E-03
            1565            1957     350.957E-03     362.478E-03
            1549            1957     350.957E-03     362.478E-03
            1566            1957     350.957E-03     362.478E-03
            1550            1957     350.957E-03     362.478E-03
            1566            1958     273.586E-03     287.434E-03
            1551            1958     273.586E-03     287.434E-03
            1550            1958     273.586E-03     287.434E-03
            1567            1958     273.586E-03     287.434E-03
            1552            1959     200.524E-03     222.129E-03
            1568            1959     200.524E-03     222.129E-03
            1551            1959     200.524E-03     222.129E-03
            1567            1959     200.524E-03     222.129E-03
            1569            1960     148.550E-03     168.087E-03
            1552            1960     148.550E-03     168.087E-03
            1553            1960     148.550E-03     168.087E-03
            1568            1960     148.550E-03     168.087E-03
            1554            1961         1.27605         1.31046
            1555            1961         1.27605         1.31046
            1571            1961         1.27605         1.31046
            1570            1961         1.27605         1.31046
            1556            1962         1.19635         1.22855
            1572            1962         1.19635         1.22855
            1555            1962         1.19635         1.22855
            1571            1962         1.19635         1.22855
            1557            1963         1.10283         1.13378
            1572            1963         1.10283         1.13378
            1573            1963         1.10283         1.13378
            1556            1963         1.10283         1.13378
            1574            1964         1.00889         1.03766
            1557            1964         1.00889         1.03766
            1573            1964         1.00889         1.03766
            1558            1964         1.00889         1.03766
            1574            1965     921.523E-03     946.970E-03
            1558            1965     921.523E-03     946.970E-03
            1559            1965     921.523E-03     946.970E-03
            1575            1965     921.523E-03     946.970E-03
            1575            1966     834.858E-03     858.752E-03
            1559            1966     834.858E-03     858.752E-03
            1560            1966     834.858E-03     858.752E-03
            1576            1966     834.858E-03     858.752E-03
            1561            1967     749.563E-03     772.748E-03
            1577            1967     749.563E-03     772.748E-03
            1576            1967     749.563E-03     772.748E-03
            1560            1967     749.563E-03     772.748E-03
            1561            1968     664.929E-03     687.814E-03
            1562            1968     664.929E-03     687.814E-03
            1577            1968     664.929E-03     687.814E-03
            1578            1968     664.929E-03     687.814E-03
            1562            1969     581.027E-03     603.642E-03
            1563            1969     581.027E-03     603.642E-03
            1578            1969     581.027E-03     603.642E-03
            1579            1969     581.027E-03     603.642E-03
            1563            1970     497.639E-03     519.999E-03
            1580            1970     497.639E-03     519.999E-03
            1564            1970     497.639E-03     519.999E-03
            1579            1970     497.639E-03     519.999E-03
            1580            1971     414.914E-03     437.014E-03
            1564            1971     414.914E-03     437.014E-03
            1565            1971     414.914E-03     437.014E-03
            1581            1971     414.914E-03     437.014E-03
            1582            1972     332.643E-03     354.862E-03
            1565            1972     332.643E-03     354.862E-03
            1566            1972     332.643E-03     354.862E-03
            1581            1972     332.643E-03     354.862E-03
            1582            1973     250.714E-03     275.658E-03
            1567            1973     250.714E-03     275.658E-03
            1566            1973     250.714E-03     275.658E-03
            1583            1973     250.714E-03     275.658E-03
            1568            1974     172.124E-03     201.267E-03
            1567            1974     172.124E-03     201.267E-03
            1584            1974     172.124E-03     201.267E-03
            1583            1974     172.124E-03     201.267E-03
            1584            1975     108.806E-03     127.530E-03
            1568            1975     108.806E-03     127.530E-03
            1569            1975     108.806E-03     127.530E-03
            1585            1975     108.806E-03     127.530E-03
            1586            1976         1.32251         1.34049
            1587            1976         1.32251         1.34049
            1570            1976         1.32251         1.34049
            1571            1976         1.32251         1.34049
            1571            1977         1.20110         1.23665
            1588            1977         1.20110         1.23665
            1587            1977         1.20110         1.23665
            1572            1977         1.20110         1.23665
            1588            1978         1.08652         1.12628
            1589            1978         1.08652         1.12628
            1572            1978         1.08652         1.12628
            1573            1978         1.08652         1.12628
            1590            1979     994.509E-03         1.03187
            1589            1979     994.509E-03         1.03187
            1573            1979     994.509E-03         1.03187
            1574            1979     994.509E-03         1.03187
            1591            1980     907.337E-03     942.668E-03
            1575            1980     907.337E-03     942.668E-03
            1590            1980     907.337E-03     942.668E-03
            1574            1980     907.337E-03     942.668E-03
            1576            1981     822.209E-03     856.669E-03
            1575            1981     822.209E-03     856.669E-03
            1592            1981     822.209E-03     856.669E-03
            1591            1981     822.209E-03     856.669E-03
            1592            1982     737.870E-03     771.906E-03
            1577            1982     737.870E-03     771.906E-03
            1576            1982     737.870E-03     771.906E-03
            1593            1982     737.870E-03     771.906E-03
            1578            1983     653.789E-03     687.707E-03
            1593            1983     653.789E-03     687.707E-03
            1594            1983     653.789E-03     687.707E-03
            1577            1983     653.789E-03     687.707E-03
            1595            1984     569.973E-03     603.787E-03
            1594            1984     569.973E-03     603.787E-03
            1579            1984     569.973E-03     603.787E-03
            1578            1984     569.973E-03     603.787E-03
            1579            1985     486.360E-03     519.998E-03
            1595            1985     486.360E-03     519.998E-03
            1580            1985     486.360E-03     519.998E-03
            1596            1985     486.360E-03     519.998E-03
            1581            1986     402.906E-03     436.324E-03
            1597            1986     402.906E-03     436.324E-03
            1596            1986     402.906E-03     436.324E-03
            1580            1986     402.906E-03     436.324E-03
            1597            1987     319.573E-03     353.072E-03
            1582            1987     319.573E-03     353.072E-03
            1598            1987     319.573E-03     353.072E-03
            1581            1987     319.573E-03     353.072E-03
            1582            1988     236.586E-03     270.458E-03
            1599            1988     236.586E-03     270.458E-03
            1583            1988     236.586E-03     270.458E-03
            1598            1988     236.586E-03     270.458E-03
            1600            1989     154.726E-03     187.750E-03
            1584            1989     154.726E-03     187.750E-03
            1599            1989     154.726E-03     187.750E-03
            1583            1989     154.726E-03     187.750E-03
            1585            1990     75.6287E-03     112.807E-03
            1601            1990     75.6287E-03     112.807E-03
            1584            1990     75.6287E-03     112.807E-03
            1600            1990     75.6287E-03     112.807E-03
            1602            1991         1.31877         1.34727
            1603            1991         1.31877         1.34727
            1586            1991         1.31877         1.34727
            1587            1991         1.31877         1.34727
            1588            1992         1.16145         1.20056
            1604            1992         1.16145         1.20056
            1603            1992         1.16145         1.20056
            1587            1992         1.16145         1.20056
            1588            1993         1.05395         1.09495
            1604            1993         1.05395         1.09495
            1605            1993         1.05395         1.09495
            1589            1993         1.05395         1.09495
            1605            1994     967.036E-03         1.00929
            1590            1994     967.036E-03         1.00929
            1589            1994     967.036E-03         1.00929
            1606            1994     967.036E-03         1.00929
            1606            1995     883.792E-03     927.575E-03
            1590            1995     883.792E-03     927.575E-03
            1591            1995     883.792E-03     927.575E-03
            1607            1995     883.792E-03     927.575E-03
            1592            1996     802.998E-03     847.525E-03
            1608            1996     802.998E-03     847.525E-03
            1591            1996     802.998E-03     847.525E-03
            1607            1996     802.998E-03     847.525E-03
            1593            1997     721.949E-03     766.840E-03
            1609            1997     721.949E-03     766.840E-03
            1592            1997     721.949E-03     766.840E-03
            1608            1997     721.949E-03     766.840E-03
            1594            1998     640.691E-03     685.790E-03
            1593            1998     640.691E-03     685.790E-03
            1609            1998     640.691E-03     685.790E-03
            1610            1998     640.691E-03     685.790E-03
            1595            1999     558.915E-03     604.069E-03
            1610            1999     558.915E-03     604.069E-03
            1611            1999     558.915E-03     604.069E-03
            1594            1999     558.915E-03     604.069E-03
            1612            2000     476.859E-03     522.081E-03
            1595            2000     476.859E-03     522.081E-03
            1596            2000     476.859E-03     522.081E-03
            1611            2000     476.859E-03     522.081E-03
            1596            2001     394.576E-03     439.684E-03
            1613            2001     394.576E-03     439.684E-03
            1612            2001     394.576E-03     439.684E-03
            1597            2001     394.576E-03     439.684E-03
            1597            2002     312.484E-03     357.251E-03
            1598            2002     312.484E-03     357.251E-03
            1613            2002     312.484E-03     357.251E-03
            1614            2002     312.484E-03     357.251E-03
            1598            2003     231.313E-03     273.827E-03
            1615            2003     231.313E-03     273.827E-03
            1599            2003     231.313E-03     273.827E-03
            1614            2003     231.313E-03     273.827E-03
            1600            2004     151.779E-03     190.180E-03
            1616            2004     151.779E-03     190.180E-03
            1615            2004     151.779E-03     190.180E-03
            1599            2004     151.779E-03     190.180E-03
            1601            2005     74.0582E-03     112.270E-03
            1617            2005     74.0582E-03     112.270E-03
            1600            2005     74.0582E-03     112.270E-03
            1616            2005     74.0582E-03     112.270E-03
            1689            2042         1.34419         1.35302
            1674            2042         1.34419         1.35302
            1690            2042         1.34419         1.35302
            1673            2042         1.34419         1.35302
            1690            2043         1.27562         1.28316
            1691            2043         1.27562         1.28316
            1674            2043         1.27562         1.28316
            1675            2043         1.27562         1.28316
            1692            2044         1.19543         1.20429
            1675            2044         1.19543         1.20429
            1676            2044         1.19543         1.20429
            1691            2044         1.19543         1.20429
            1676            2045         1.10722         1.11767
            1677            2045         1.10722         1.11767
            1693            2045         1.10722         1.11767
            1692            2045         1.10722         1.11767
            1677            2046         1.01726         1.02870
            1678            2046         1.01726         1.02870
            1694            2046         1.01726         1.02870
            1693            2046         1.01726         1.02870
            1694            2047     926.732E-03     939.265E-03
            1695            2047     926.732E-03     939.265E-03
            1678            2047     926.732E-03     939.265E-03
            1679            2047     926.732E-03     939.265E-03
            1680            2048     835.799E-03     848.567E-03
            1696            2048     835.799E-03     848.567E-03
            1695            2048     835.799E-03     848.567E-03
            1679            2048     835.799E-03     848.567E-03
            1681            2049     744.291E-03     757.949E-03
            1696            2049     744.291E-03     757.949E-03
            1697            2049     744.291E-03     757.949E-03
            1680            2049     744.291E-03     757.949E-03
            1697            2050     652.718E-03     666.752E-03
            1682            2050     652.718E-03     666.752E-03
            1698            2050     652.718E-03     666.752E-03
            1681            2050     652.718E-03     666.752E-03
            1699            2051     560.924E-03     575.768E-03
            1682            2051     560.924E-03     575.768E-03
            1683            2051     560.924E-03     575.768E-03
            1698            2051     560.924E-03     575.768E-03
            1684            2052     469.257E-03     484.741E-03
            1700            2052     469.257E-03     484.741E-03
            1683            2052     469.257E-03     484.741E-03
            1699            2052     469.257E-03     484.741E-03
            1700            2053     377.797E-03     394.190E-03
            1701            2053     377.797E-03     394.190E-03
            1685            2053     377.797E-03     394.190E-03
            1684            2053     377.797E-03     394.190E-03
            1702            2054     287.268E-03     304.157E-03
            1701            2054     287.268E-03     304.157E-03
            1686            2054     287.268E-03     304.157E-03
            1685            2054     287.268E-03     304.157E-03
            1703            2055     198.422E-03     214.538E-03
            1687            2055     198.422E-03     214.538E-03
            1686            2055     198.422E-03     214.538E-03
            1702            2055     198.422E-03     214.538E-03
            1704            2056     116.271E-03     132.934E-03
            1687            2056     116.271E-03     132.934E-03
            1703            2056     116.271E-03     132.934E-03
            1688            2056     116.271E-03     132.934E-03
            1706            2057         1.43554         1.44379
            1705            2057         1.43554         1.44379
            1689            2057         1.43554         1.44379
            1690            2057         1.43554         1.44379
            1707            2058         1.37019         1.37530
            1706            2058         1.37019         1.37530
            1691            2058         1.37019         1.37530
            1690            2058         1.37019         1.37530
            1692            2059         1.27878         1.28531
            1691            2059         1.27878         1.28531
            1708            2059         1.27878         1.28531
            1707            2059         1.27878         1.28531
            1709            2060         1.18183         1.18979
            1708            2060         1.18183         1.18979
            1693            2060         1.18183         1.18979
            1692            2060         1.18183         1.18979
            1694            2061         1.08573         1.09400
            1693            2061         1.08573         1.09400
            1710            2061         1.08573         1.09400
            1709            2061         1.08573         1.09400
            1694            2062     988.688E-03     998.197E-03
            1711            2062     988.688E-03     998.197E-03
            1710            2062     988.688E-03     998.197E-03
            1695            2062     988.688E-03     998.197E-03
            1711            2063     892.070E-03     902.138E-03
            1696            2063     892.070E-03     902.138E-03
            1712            2063     892.070E-03     902.138E-03
            1695            2063     892.070E-03     902.138E-03
            1696            2064     794.852E-03     805.978E-03
            1697            2064     794.852E-03     805.978E-03
            1712            2064     794.852E-03     805.978E-03
            1713            2064     794.852E-03     805.978E-03
            1713            2065     697.789E-03     709.575E-03
            1697            2065     697.789E-03     709.575E-03
            1698            2065     697.789E-03     709.575E-03
            1714            2065     697.789E-03     709.575E-03
            1698            2066     600.438E-03     613.174E-03
            1714            2066     600.438E-03     613.174E-03
            1715            2066     600.438E-03     613.174E-03
            1699            2066     600.438E-03     613.174E-03
            1699            2067     503.440E-03     516.869E-03
            1715            2067     503.440E-03     516.869E-03
            1700            2067     503.440E-03     516.869E-03
            1716            2067     503.440E-03     516.869E-03
            1716            2068     406.430E-03     420.712E-03
            1717            2068     406.430E-03     420.712E-03
            1700            2068     406.430E-03     420.712E-03
            1701            2068     406.430E-03     420.712E-03
            1701            2069     310.332E-03     325.054E-03
            1702            2069     310.332E-03     325.054E-03
            1717            2069     310.332E-03     325.054E-03
            1718            2069     310.332E-03     325.054E-03
            1718            2070     213.604E-03     230.145E-03
            1703            2070     213.604E-03     230.145E-03
            1702            2070     213.604E-03     230.145E-03
            1719            2070     213.604E-03     230.145E-03
            1720            2071     120.885E-03     149.810E-03
            1704            2071     120.885E-03     149.810E-03
            1719            2071     120.885E-03     149.810E-03
            1703            2071     120.885E-03     149.810E-03
            1705            2072         1.50905         1.52627
            1706            2072         1.50905         1.52627
            1721            2072         1.50905         1.52627
            1722            2072         1.50905         1.52627
            1722            2073         1.39725         1.42933
            1706            2073         1.39725         1.42933
            1707            2073         1.39725         1.42933
            1723            2073         1.39725         1.42933
            1707            2074         1.28273         1.31406
            1723            2074         1.28273         1.31406
            1708            2074         1.28273         1.31406
            1724            2074         1.28273         1.31406
            1709            2075         1.18208         1.21066
            1725            2075         1.18208         1.21066
            1724            2075         1.18208         1.21066
            1708            2075         1.18208         1.21066
            1709            2076         1.08239         1.11011
            1710            2076         1.08239         1.11011
            1726            2076         1.08239         1.11011
            1725            2076         1.08239         1.11011
            1710            2077     983.610E-03         1.01104
            1726            2077     983.610E-03         1.01104
            1711            2077     983.610E-03         1.01104
            1727            2077     983.610E-03         1.01104
            1727            2078     885.273E-03     912.953E-03
            1728            2078     885.273E-03     912.953E-03
            1711            2078     885.273E-03     912.953E-03
            1712            2078     885.273E-03     912.953E-03
            1713            2079     787.445E-03     815.016E-03
            1728            2079     787.445E-03     815.016E-03
            1729            2079     787.445E-03     815.016E-03
            1712            2079     787.445E-03     815.016E-03
            1729            2080     689.691E-03     717.425E-03
            1714            2080     689.691E-03     717.425E-03
            1730            2080     689.691E-03     717.425E-03
            1713            2080     689.691E-03     717.425E-03
            1714            2081     592.249E-03     619.800E-03
            1715            2081     592.249E-03     619.800E-03
            1731            2081     592.249E-03     619.800E-03
            1730            2081     592.249E-03     619.800E-03
            1715            2082     495.002E-03     522.255E-03
            1716            2082     495.002E-03     522.255E-03
            1731            2082     495.002E-03     522.255E-03
            1732            2082     495.002E-03     522.255E-03
            1717            2083     398.274E-03     424.691E-03
            1716            2083     398.274E-03     424.691E-03
            1733            2083     398.274E-03     424.691E-03
            1732            2083     398.274E-03     424.691E-03
            1717            2084     301.180E-03     327.209E-03
            1734            2084     301.180E-03     327.209E-03
            1718            2084     301.180E-03     327.209E-03
            1733            2084     301.180E-03     327.209E-03
            1718            2085     202.906E-03     234.423E-03
            1735            2085     202.906E-03     234.423E-03
            1719            2085     202.906E-03     234.423E-03
            1734            2085     202.906E-03     234.423E-03
            1719            2086     104.161E-03     154.951E-03
            1736            2086     104.161E-03     154.951E-03
            1720            2086     104.161E-03     154.951E-03
            1735            2086     104.161E-03     154.951E-03
            1721            2087         1.50554         1.54797
            1737            2087         1.50554         1.54797
            1738            2087         1.50554         1.54797
            1722            2087         1.50554         1.54797
            1738            2088         1.35999         1.40942
            1739            2088         1.35999         1.40942
            1722            2088         1.35999         1.40942
            1723            2088         1.35999         1.40942
            1723            2089         1.25483         1.30340
            1740            2089         1.25483         1.30340
            1724            2089         1.25483         1.30340
            1739            2089         1.25483         1.30340
            1741            2090         1.16091         1.20826
            1740            2090         1.16091         1.20826
            1724            2090         1.16091         1.20826
            1725            2090         1.16091         1.20826
            1725            2091         1.06671         1.11322
            1741            2091         1.06671         1.11322
            1742            2091         1.06671         1.11322
            1726            2091         1.06671         1.11322
            1742            2092     972.102E-03         1.01806
            1743            2092     972.102E-03         1.01806
            1726            2092     972.102E-03         1.01806
            1727            2092     972.102E-03         1.01806
            1743            2093     876.903E-03     921.708E-03
            1728            2093     876.903E-03     921.708E-03
            1727            2093     876.903E-03     921.708E-03
            1744            2093     876.903E-03     921.708E-03
            1728            2094     781.239E-03     825.355E-03
            1745            2094     781.239E-03     825.355E-03
            1744            2094     781.239E-03     825.355E-03
            1729            2094     781.239E-03     825.355E-03
            1729            2095     685.510E-03     728.542E-03
            1745            2095     685.510E-03     728.542E-03
            1730            2095     685.510E-03     728.542E-03
            1746            2095     685.510E-03     728.542E-03
            1731            2096     589.786E-03     631.959E-03
            1747            2096     589.786E-03     631.959E-03
            1746            2096     589.786E-03     631.959E-03
            1730            2096     589.786E-03     631.959E-03
            1731            2097     494.267E-03     535.316E-03
            1732            2097     494.267E-03     535.316E-03
            1748            2097     494.267E-03     535.316E-03
            1747            2097     494.267E-03     535.316E-03
            1733            2098     399.602E-03     439.336E-03
            1748            2098     399.602E-03     439.336E-03
            1749            2098     399.602E-03     439.336E-03
            1732            2098     399.602E-03     439.336E-03
            1734            2099     305.692E-03     344.067E-03
            1750            2099     305.692E-03     344.067E-03
            1749            2099     305.692E-03     344.067E-03
            1733            2099     305.692E-03     344.067E-03
            1750            2100     216.020E-03     254.749E-03
            1751            2100     216.020E-03     254.749E-03
            1735            2100     216.020E-03     254.749E-03
            1734            2100     216.020E-03     254.749E-03
            1751            2101     131.507E-03     173.901E-03
            1752            2101     131.507E-03     173.901E-03
            1735            2101     131.507E-03     173.901E-03
            1736            2101     131.507E-03     173.901E-03
            2369            2543     928.040E-03     989.556E-03
            2370            2543     928.040E-03     989.556E-03
            2386            2543     928.040E-03     989.556E-03
            2385            2543     928.040E-03     989.556E-03
            2387            2544     816.978E-03     886.483E-03
            2370            2544     816.978E-03     886.483E-03
            2386            2544     816.978E-03     886.483E-03
            2371            2544     816.978E-03     886.483E-03
            2371            2545     755.401E-03     825.566E-03
            2372            2545     755.401E-03     825.566E-03
            2388            2545     755.401E-03     825.566E-03
            2387            2545     755.401E-03     825.566E-03
            2372            2546     699.076E-03     768.357E-03
            2389            2546     699.076E-03     768.357E-03
            2373            2546     699.076E-03     768.357E-03
            2388            2546     699.076E-03     768.357E-03
            2389            2547     640.611E-03     709.637E-03
            2374            2547     640.611E-03     709.637E-03
            2373            2547     640.611E-03     709.637E-03
            2390            2547     640.611E-03     709.637E-03
            2375            2548     582.921E-03     652.226E-03
            2391            2548     582.921E-03     652.226E-03
            2374            2548     582.921E-03     652.226E-03
            2390            2548     582.921E-03     652.226E-03
            2392            2549     525.745E-03     594.352E-03
            2391            2549     525.745E-03     594.352E-03
            2375            2549     525.745E-03     594.352E-03
            2376            2549     525.745E-03     594.352E-03
            2376            2550     468.791E-03     537.347E-03
            2377            2550     468.791E-03     537.347E-03
            2392            2550     468.791E-03     537.347E-03
            2393            2550     468.791E-03     537.347E-03
            2378            2551     412.659E-03     480.350E-03
            2393            2551     412.659E-03     480.350E-03
            2394            2551     412.659E-03     480.350E-03
            2377            2551     412.659E-03     480.350E-03
            2378            2552     357.160E-03     424.234E-03
            2394            2552     357.160E-03     424.234E-03
            2395            2552     357.160E-03     424.234E-03
            2379            2552     357.160E-03     424.234E-03
            2396            2553     303.167E-03     368.721E-03
            2379            2553     303.167E-03     368.721E-03
            2380            2553     303.167E-03     368.721E-03
            2395            2553     303.167E-03     368.721E-03
            2380            2554     251.053E-03     314.684E-03
            2381            2554     251.053E-03     314.684E-03
            2396            2554     251.053E-03     314.684E-03
            2397            2554     251.053E-03     314.684E-03
            2398            2555     202.913E-03     262.247E-03
            2397            2555     202.913E-03     262.247E-03
            2382            2555     202.913E-03     262.247E-03
            2381            2555     202.913E-03     262.247E-03
            2383            2556     164.841E-03     215.614E-03
            2398            2556     164.841E-03     215.614E-03
            2399            2556     164.841E-03     215.614E-03
            2382            2556     164.841E-03     215.614E-03
            2399            2557     148.275E-03     180.336E-03
            2400            2557     148.275E-03     180.336E-03
            2383            2557     148.275E-03     180.336E-03
            2384            2557     148.275E-03     180.336E-03
            2385            2558     877.268E-03     832.049E-03
            2402            2558     877.268E-03     832.049E-03
            2401            2558     877.268E-03     832.049E-03
            2386            2558     877.268E-03     832.049E-03
            2403            2559     873.756E-03     837.693E-03
            2402            2559     873.756E-03     837.693E-03
            2386            2559     873.756E-03     837.693E-03
            2387            2559     873.756E-03     837.693E-03
            2388            2560     813.087E-03     777.368E-03
            2387            2560     813.087E-03     777.368E-03
            2403            2560     813.087E-03     777.368E-03
            2404            2560     813.087E-03     777.368E-03
            2388            2561     756.245E-03     719.692E-03
            2404            2561     756.245E-03     719.692E-03
            2389            2561     756.245E-03     719.692E-03
            2405            2561     756.245E-03     719.692E-03
            2406            2562     699.479E-03     663.980E-03
            2405            2562     699.479E-03     663.980E-03
            2389            2562     699.479E-03     663.980E-03
            2390            2562     699.479E-03     663.980E-03
            2390            2563     643.307E-03     607.695E-03
            2407            2563     643.307E-03     607.695E-03
            2406            2563     643.307E-03     607.695E-03
            2391            2563     643.307E-03     607.695E-03
            2408            2564     586.652E-03     551.832E-03
            2391            2564     586.652E-03     551.832E-03
            2407            2564     586.652E-03     551.832E-03
            2392            2564     586.652E-03     551.832E-03
            2408            2565     530.753E-03     496.166E-03
            2409            2565     530.753E-03     496.166E-03
            2392            2565     530.753E-03     496.166E-03
            2393            2565     530.753E-03     496.166E-03
            2410            2566     475.149E-03     441.498E-03
            2409            2566     475.149E-03     441.498E-03
            2393            2566     475.149E-03     441.498E-03
            2394            2566     475.149E-03     441.498E-03
            2411            2567     420.641E-03     387.819E-03
            2410            2567     420.641E-03     387.819E-03
            2395            2567     420.641E-03     387.819E-03
            2394            2567     420.641E-03     387.819E-03
            2411            2568     367.245E-03     336.035E-03
            2412            2568     367.245E-03     336.035E-03
            2396            2568     367.245E-03     336.035E-03
            2395            2568     367.245E-03     336.035E-03
            2413            2569     315.973E-03     287.023E-03
            2396            2569     315.973E-03     287.023E-03
            2412            2569     315.973E-03     287.023E-03
            2397            2569     315.973E-03     287.023E-03
            2413            2570     268.149E-03     241.802E-03
            2414            2570     268.149E-03     241.802E-03
            2397            2570     268.149E-03     241.802E-03
            2398            2570     268.149E-03     241.802E-03
            2415            2571     226.318E-03     206.592E-03
            2414            2571     226.318E-03     206.592E-03
            2399            2571     226.318E-03     206.592E-03
            2398            2571     226.318E-03     206.592E-03
            2415            2572     197.560E-03     190.108E-03
            2416            2572     197.560E-03     190.108E-03
            2399            2572     197.560E-03     190.108E-03
            2400            2572     197.560E-03     190.108E-03
            2402            2573     759.567E-03     776.033E-03
            2417            2573     759.567E-03     776.033E-03
            2418            2573     759.567E-03     776.033E-03
            2401            2573     759.567E-03     776.033E-03
            2418            2574     684.044E-03     675.799E-03
            2403            2574     684.044E-03     675.799E-03
            2402            2574     684.044E-03     675.799E-03
            2419            2574     684.044E-03     675.799E-03
            2403            2575     619.688E-03     606.100E-03
            2420            2575     619.688E-03     606.100E-03
            2404            2575     619.688E-03     606.100E-03
            2419            2575     619.688E-03     606.100E-03
            2421            2576     564.438E-03     552.052E-03
            2405            2576     564.438E-03     552.052E-03
            2404            2576     564.438E-03     552.052E-03
            2420            2576     564.438E-03     552.052E-03
            2421            2577     521.161E-03     508.930E-03
            2406            2577     521.161E-03     508.930E-03
            2422            2577     521.161E-03     508.930E-03
            2405            2577     521.161E-03     508.930E-03
            2406            2578     479.698E-03     467.401E-03
            2423            2578     479.698E-03     467.401E-03
            2422            2578     479.698E-03     467.401E-03
            2407            2578     479.698E-03     467.401E-03
            2407            2579     439.319E-03     427.331E-03
            2408            2579     439.319E-03     427.331E-03
            2424            2579     439.319E-03     427.331E-03
            2423            2579     439.319E-03     427.331E-03
            2408            2580     399.436E-03     387.266E-03
            2424            2580     399.436E-03     387.266E-03
            2409            2580     399.436E-03     387.266E-03
            2425            2580     399.436E-03     387.266E-03
            2409            2581     359.995E-03     348.000E-03
            2426            2581     359.995E-03     348.000E-03
            2410            2581     359.995E-03     348.000E-03
            2425            2581     359.995E-03     348.000E-03
            2427            2582     321.741E-03     309.517E-03
            2426            2582     321.741E-03     309.517E-03
            2411            2582     321.741E-03     309.517E-03
            2410            2582     321.741E-03     309.517E-03
            2411            2583     284.855E-03     272.505E-03
            2412            2583     284.855E-03     272.505E-03
            2428            2583     284.855E-03     272.505E-03
            2427            2583     284.855E-03     272.505E-03
            2412            2584     250.544E-03     238.086E-03
            2428            2584     250.544E-03     238.086E-03
            2413            2584     250.544E-03     238.086E-03
            2429            2584     250.544E-03     238.086E-03
            2430            2585     219.581E-03     207.326E-03
            2429            2585     219.581E-03     207.326E-03
            2414            2585     219.581E-03     207.326E-03
            2413            2585     219.581E-03     207.326E-03
            2415            2586     192.592E-03     185.323E-03
            2414            2586     192.592E-03     185.323E-03
            2431            2586     192.592E-03     185.323E-03
            2430            2586     192.592E-03     185.323E-03
            2416            2587     164.486E-03     174.227E-03
            2415            2587     164.486E-03     174.227E-03
            2431            2587     164.486E-03     174.227E-03
            2432            2587     164.486E-03     174.227E-03
            2433            2588     697.099E-03     744.639E-03
            2434            2588     697.099E-03     744.639E-03
            2418            2588     697.099E-03     744.639E-03
            2417            2588     697.099E-03     744.639E-03
            2418            2589     494.140E-03     550.377E-03
            2434            2589     494.140E-03     550.377E-03
            2419            2589     494.140E-03     550.377E-03
            2435            2589     494.140E-03     550.377E-03
            2435            2590     403.337E-03     458.595E-03
            2420            2590     403.337E-03     458.595E-03
            2419            2590     403.337E-03     458.595E-03
            2436            2590     403.337E-03     458.595E-03
            2421            2591     356.943E-03     411.238E-03
            2436            2591     356.943E-03     411.238E-03
            2420            2591     356.943E-03     411.238E-03
            2437            2591     356.943E-03     411.238E-03
            2438            2592     323.409E-03     377.399E-03
            2437            2592     323.409E-03     377.399E-03
            2421            2592     323.409E-03     377.399E-03
            2422            2592     323.409E-03     377.399E-03
            2438            2593     296.975E-03     350.130E-03
            2422            2593     296.975E-03     350.130E-03
            2423            2593     296.975E-03     350.130E-03
            2439            2593     296.975E-03     350.130E-03
            2423            2594     271.590E-03     323.865E-03
            2424            2594     271.590E-03     323.865E-03
            2440            2594     271.590E-03     323.865E-03
            2439            2594     271.590E-03     323.865E-03
            2424            2595     247.246E-03     298.467E-03
            2425            2595     247.246E-03     298.467E-03
            2441            2595     247.246E-03     298.467E-03
            2440            2595     247.246E-03     298.467E-03
            2426            2596     223.519E-03     273.124E-03
            2425            2596     223.519E-03     273.124E-03
            2441            2596     223.519E-03     273.124E-03
            2442            2596     223.519E-03     273.124E-03
            2427            2597     200.999E-03     248.445E-03
            2426            2597     200.999E-03     248.445E-03
            2442            2597     200.999E-03     248.445E-03
            2443            2597     200.999E-03     248.445E-03
            2428            2598     180.419E-03     224.510E-03
            2444            2598     180.419E-03     224.510E-03
            2443            2598     180.419E-03     224.510E-03
            2427            2598     180.419E-03     224.510E-03
            2428            2599     162.738E-03     201.910E-03
            2444            2599     162.738E-03     201.910E-03
            2429            2599     162.738E-03     201.910E-03
            2445            2599     162.738E-03     201.910E-03
            2430            2600     148.658E-03     181.701E-03
            2445            2600     148.658E-03     181.701E-03
            2429            2600     148.658E-03     181.701E-03
            2446            2600     148.658E-03     181.701E-03
            2430            2601     138.069E-03     166.089E-03
            2446            2601     138.069E-03     166.089E-03
            2447            2601     138.069E-03     166.089E-03
            2431            2601     138.069E-03     166.089E-03
            2432            2602     135.275E-03     158.550E-03
            2448            2602     135.275E-03     158.550E-03
            2447            2602     135.275E-03     158.550E-03
            2431            2602     135.275E-03     158.550E-03
            2449            2603     639.616E-03     643.145E-03
            2433            2603     639.616E-03     643.145E-03
            2450            2603     639.616E-03     643.145E-03
            2434            2603     639.616E-03     643.145E-03
            2451            2604     502.253E-03     526.917E-03
            2450            2604     502.253E-03     526.917E-03
            2435            2604     502.253E-03     526.917E-03
            2434            2604     502.253E-03     526.917E-03
            2451            2605     417.090E-03     453.001E-03
            2436            2605     417.090E-03     453.001E-03
            2452            2605     417.090E-03     453.001E-03
            2435            2605     417.090E-03     453.001E-03
            2436            2606     375.393E-03     412.619E-03
            2437            2606     375.393E-03     412.619E-03
            2453            2606     375.393E-03     412.619E-03
            2452            2606     375.393E-03     412.619E-03
            2438            2607     345.533E-03     381.121E-03
            2454            2607     345.533E-03     381.121E-03
            2437            2607     345.533E-03     381.121E-03
            2453            2607     345.533E-03     381.121E-03
            2454            2608     317.967E-03     352.615E-03
            2438            2608     317.967E-03     352.615E-03
            2439            2608     317.967E-03     352.615E-03
            2455            2608     317.967E-03     352.615E-03
            2455            2609     292.167E-03     325.787E-03
            2456            2609     292.167E-03     325.787E-03
            2439            2609     292.167E-03     325.787E-03
            2440            2609     292.167E-03     325.787E-03
            2440            2610     267.017E-03     299.667E-03
            2441            2610     267.017E-03     299.667E-03
            2456            2610     267.017E-03     299.667E-03
            2457            2610     267.017E-03     299.667E-03
            2458            2611     243.057E-03     274.510E-03
            2441            2611     243.057E-03     274.510E-03
            2442            2611     243.057E-03     274.510E-03
            2457            2611     243.057E-03     274.510E-03
            2458            2612     220.455E-03     250.228E-03
            2442            2612     220.455E-03     250.228E-03
            2459            2612     220.455E-03     250.228E-03
            2443            2612     220.455E-03     250.228E-03
            2459            2613     199.885E-03     227.465E-03
            2460            2613     199.885E-03     227.465E-03
            2443            2613     199.885E-03     227.465E-03
            2444            2613     199.885E-03     227.465E-03
            2460            2614     182.554E-03     206.277E-03
            2445            2614     182.554E-03     206.277E-03
            2461            2614     182.554E-03     206.277E-03
            2444            2614     182.554E-03     206.277E-03
            2446            2615     168.818E-03     187.630E-03
            2461            2615     168.818E-03     187.630E-03
            2462            2615     168.818E-03     187.630E-03
            2445            2615     168.818E-03     187.630E-03
            2446            2616     162.230E-03     172.789E-03
            2462            2616     162.230E-03     172.789E-03
            2447            2616     162.230E-03     172.789E-03
            2463            2616     162.230E-03     172.789E-03
            2464            2617     167.914E-03     159.940E-03
            2447            2617     167.914E-03     159.940E-03
            2448            2617     167.914E-03     159.940E-03
            2463            2617     167.914E-03     159.940E-03
            2450            2618     529.332E-03     542.126E-03
            2465            2618     529.332E-03     542.126E-03
            2466            2618     529.332E-03     542.126E-03
            2449            2618     529.332E-03     542.126E-03
            2467            2619     459.675E-03     473.702E-03
            2466            2619     459.675E-03     473.702E-03
            2450            2619     459.675E-03     473.702E-03
            2451            2619     459.675E-03     473.702E-03
            2467            2620     421.829E-03     440.943E-03
            2451            2620     421.829E-03     440.943E-03
            2452            2620     421.829E-03     440.943E-03
            2468            2620     421.829E-03     440.943E-03
            2469            2621     392.525E-03     411.761E-03
            2452            2621     392.525E-03     411.761E-03
            2468            2621     392.525E-03     411.761E-03
            2453            2621     392.525E-03     411.761E-03
            2470            2622     365.896E-03     383.409E-03
            2453            2622     365.896E-03     383.409E-03
            2469            2622     365.896E-03     383.409E-03
            2454            2622     365.896E-03     383.409E-03
            2454            2623     337.992E-03     354.393E-03
            2455            2623     337.992E-03     354.393E-03
            2471            2623     337.992E-03     354.393E-03
            2470            2623     337.992E-03     354.393E-03
            2471            2624     311.111E-03     326.832E-03
            2472            2624     311.111E-03     326.832E-03
            2455            2624     311.111E-03     326.832E-03
            2456            2624     311.111E-03     326.832E-03
            2456            2625     285.457E-03     300.466E-03
            2457            2625     285.457E-03     300.466E-03
            2473            2625     285.457E-03     300.466E-03
            2472            2625     285.457E-03     300.466E-03
            2458            2626     261.256E-03     275.598E-03
            2457            2626     261.256E-03     275.598E-03
            2474            2626     261.256E-03     275.598E-03
            2473            2626     261.256E-03     275.598E-03
            2459            2627     238.853E-03     252.382E-03
            2475            2627     238.853E-03     252.382E-03
            2458            2627     238.853E-03     252.382E-03
            2474            2627     238.853E-03     252.382E-03
            2460            2628     218.571E-03     230.949E-03
            2459            2628     218.571E-03     230.949E-03
            2475            2628     218.571E-03     230.949E-03
            2476            2628     218.571E-03     230.949E-03
            2460            2629     201.034E-03     212.140E-03
            2476            2629     201.034E-03     212.140E-03
            2477            2629     201.034E-03     212.140E-03
            2461            2629     201.034E-03     212.140E-03
            2462            2630     189.155E-03     195.410E-03
            2478            2630     189.155E-03     195.410E-03
            2461            2630     189.155E-03     195.410E-03
            2477            2630     189.155E-03     195.410E-03
            2478            2631     185.344E-03     179.615E-03
            2462            2631     185.344E-03     179.615E-03
            2479            2631     185.344E-03     179.615E-03
            2463            2631     185.344E-03     179.615E-03
            2480            2632     187.504E-03     170.299E-03
            2464            2632     187.504E-03     170.299E-03
            2463            2632     187.504E-03     170.299E-03
            2479            2632     187.504E-03     170.299E-03
            2481            2633     426.028E-03     426.221E-03
            2465            2633     426.028E-03     426.221E-03
            2466            2633     426.028E-03     426.221E-03
            2482            2633     426.028E-03     426.221E-03
            2467            2634     393.831E-03     405.447E-03
            2482            2634     393.831E-03     405.447E-03
            2466            2634     393.831E-03     405.447E-03
            2483            2634     393.831E-03     405.447E-03
            2483            2635     408.720E-03     413.802E-03
            2484            2635     408.720E-03     413.802E-03
            2468            2635     408.720E-03     413.802E-03
            2467            2635     408.720E-03     413.802E-03
            2468            2636     402.405E-03     401.879E-03
            2469            2636     402.405E-03     401.879E-03
            2485            2636     402.405E-03     401.879E-03
            2484            2636     402.405E-03     401.879E-03
            2485            2637     378.454E-03     377.432E-03
            2470            2637     378.454E-03     377.432E-03
            2486            2637     378.454E-03     377.432E-03
            2469            2637     378.454E-03     377.432E-03
            2487            2638     352.924E-03     351.155E-03
            2471            2638     352.924E-03     351.155E-03
            2486            2638     352.924E-03     351.155E-03
            2470            2638     352.924E-03     351.155E-03
            2471            2639     326.320E-03     324.438E-03
            2472            2639     326.320E-03     324.438E-03
            2488            2639     326.320E-03     324.438E-03
            2487            2639     326.320E-03     324.438E-03
            2489            2640     301.291E-03     299.403E-03
            2473            2640     301.291E-03     299.403E-03
            2472            2640     301.291E-03     299.403E-03
            2488            2640     301.291E-03     299.403E-03
            2473            2641     277.809E-03     275.965E-03
            2489            2641     277.809E-03     275.965E-03
            2490            2641     277.809E-03     275.965E-03
            2474            2641     277.809E-03     275.965E-03
            2474            2642     256.149E-03     254.494E-03
            2475            2642     256.149E-03     254.494E-03
            2491            2642     256.149E-03     254.494E-03
            2490            2642     256.149E-03     254.494E-03
            2475            2643     236.559E-03     235.229E-03
            2491            2643     236.559E-03     235.229E-03
            2492            2643     236.559E-03     235.229E-03
            2476            2643     236.559E-03     235.229E-03
            2492            2644     219.366E-03     218.719E-03
            2493            2644     219.366E-03     218.719E-03
            2477            2644     219.366E-03     218.719E-03
            2476            2644     219.366E-03     218.719E-03
            2478            2645     206.476E-03     205.642E-03
            2494            2645     206.476E-03     205.642E-03
            2493            2645     206.476E-03     205.642E-03
            2477            2645     206.476E-03     205.642E-03
            2479            2646     201.418E-03     194.315E-03
            2494            2646     201.418E-03     194.315E-03
            2495            2646     201.418E-03     194.315E-03
            2478            2646     201.418E-03     194.315E-03
            2495            2647     203.373E-03     185.413E-03
            2496            2647     203.373E-03     185.413E-03
            2480            2647     203.373E-03     185.413E-03
            2479            2647     203.373E-03     185.413E-03
            2481            2648     321.752E-03     317.017E-03
            2482            2648     321.752E-03     317.017E-03
            2497            2648     321.752E-03     317.017E-03
            2498            2648     321.752E-03     317.017E-03
            2482            2649     342.315E-03     334.007E-03
            2499            2649     342.315E-03     334.007E-03
            2483            2649     342.315E-03     334.007E-03
            2498            2649     342.315E-03     334.007E-03
            2500            2650     391.877E-03     374.175E-03
            2483            2650     391.877E-03     374.175E-03
            2499            2650     391.877E-03     374.175E-03
            2484            2650     391.877E-03     374.175E-03
            2484            2651     395.853E-03     375.435E-03
            2500            2651     395.853E-03     375.435E-03
            2485            2651     395.853E-03     375.435E-03
            2501            2651     395.853E-03     375.435E-03
            2485            2652     381.844E-03     360.982E-03
            2502            2652     381.844E-03     360.982E-03
            2501            2652     381.844E-03     360.982E-03
            2486            2652     381.844E-03     360.982E-03
            2487            2653     359.825E-03     339.888E-03
            2503            2653     359.825E-03     339.888E-03
            2502            2653     359.825E-03     339.888E-03
            2486            2653     359.825E-03     339.888E-03
            2487            2654     336.981E-03     317.825E-03
            2488            2654     336.981E-03     317.825E-03
            2504            2654     336.981E-03     317.825E-03
            2503            2654     336.981E-03     317.825E-03
            2504            2655     314.195E-03     296.058E-03
            2505            2655     314.195E-03     296.058E-03
            2489            2655     314.195E-03     296.058E-03
            2488            2655     314.195E-03     296.058E-03
            2489            2656     292.719E-03     275.686E-03
            2505            2656     292.719E-03     275.686E-03
            2506            2656     292.719E-03     275.686E-03
            2490            2656     292.719E-03     275.686E-03
            2490            2657     272.623E-03     256.925E-03
            2506            2657     272.623E-03     256.925E-03
            2491            2657     272.623E-03     256.925E-03
            2507            2657     272.623E-03     256.925E-03
            2491            2658     254.159E-03     240.389E-03
            2508            2658     254.159E-03     240.389E-03
            2492            2658     254.159E-03     240.389E-03
            2507            2658     254.159E-03     240.389E-03
            2508            2659     237.888E-03     226.353E-03
            2492            2659     237.888E-03     226.353E-03
            2493            2659     237.888E-03     226.353E-03
            2509            2659     237.888E-03     226.353E-03
            2494            2660     222.872E-03     216.805E-03
            2510            2660     222.872E-03     216.805E-03
            2509            2660     222.872E-03     216.805E-03
            2493            2660     222.872E-03     216.805E-03
            2494            2661     212.215E-03     213.627E-03
            2495            2661     212.215E-03     213.627E-03
            2511            2661     212.215E-03     213.627E-03
            2510            2661     212.215E-03     213.627E-03
            2496            2662     215.519E-03     210.131E-03
            2511            2662     215.519E-03     210.131E-03
            2495            2662     215.519E-03     210.131E-03
            2512            2662     215.519E-03     210.131E-03
            2513            2663     249.147E-03     238.704E-03
            2514            2663     249.147E-03     238.704E-03
            2497            2663     249.147E-03     238.704E-03
            2498            2663     249.147E-03     238.704E-03
            2498            2664     308.607E-03     263.405E-03
            2515            2664     308.607E-03     263.405E-03
            2499            2664     308.607E-03     263.405E-03
            2514            2664     308.607E-03     263.405E-03
            2499            2665     363.938E-03     317.713E-03
            2515            2665     363.938E-03     317.713E-03
            2500            2665     363.938E-03     317.713E-03
            2516            2665     363.938E-03     317.713E-03
            2501            2666     377.709E-03     335.040E-03
            2500            2666     377.709E-03     335.040E-03
            2516            2666     377.709E-03     335.040E-03
            2517            2666     377.709E-03     335.040E-03
            2502            2667     374.287E-03     334.154E-03
            2501            2667     374.287E-03     334.154E-03
            2517            2667     374.287E-03     334.154E-03
            2518            2667     374.287E-03     334.154E-03
            2519            2668     361.165E-03     323.204E-03
            2518            2668     361.165E-03     323.204E-03
            2502            2668     361.165E-03     323.204E-03
            2503            2668     361.165E-03     323.204E-03
            2520            2669     343.960E-03     308.430E-03
            2503            2669     343.960E-03     308.430E-03
            2504            2669     343.960E-03     308.430E-03
            2519            2669     343.960E-03     308.430E-03
            2504            2670     325.516E-03     292.074E-03
            2505            2670     325.516E-03     292.074E-03
            2520            2670     325.516E-03     292.074E-03
            2521            2670     325.516E-03     292.074E-03
            2522            2671     306.780E-03     275.852E-03
            2506            2671     306.780E-03     275.852E-03
            2505            2671     306.780E-03     275.852E-03
            2521            2671     306.780E-03     275.852E-03
            2507            2672     288.799E-03     260.587E-03
            2522            2672     288.799E-03     260.587E-03
            2523            2672     288.799E-03     260.587E-03
            2506            2672     288.799E-03     260.587E-03
            2508            2673     271.822E-03     246.902E-03
            2524            2673     271.822E-03     246.902E-03
            2507            2673     271.822E-03     246.902E-03
            2523            2673     271.822E-03     246.902E-03
            2525            2674     256.318E-03     235.709E-03
            2524            2674     256.318E-03     235.709E-03
            2508            2674     256.318E-03     235.709E-03
            2509            2674     256.318E-03     235.709E-03
            2510            2675     242.188E-03     227.916E-03
            2525            2675     242.188E-03     227.916E-03
            2509            2675     242.188E-03     227.916E-03
            2526            2675     242.188E-03     227.916E-03
            2511            2676     228.027E-03     227.130E-03
            2526            2676     228.027E-03     227.130E-03
            2510            2676     228.027E-03     227.130E-03
            2527            2676     228.027E-03     227.130E-03
            2512            2677     218.035E-03     237.542E-03
            2527            2677     218.035E-03     237.542E-03
            2528            2677     218.035E-03     237.542E-03
            2511            2677     218.035E-03     237.542E-03
            2513            2678     141.325E-03     134.759E-03
            2530            2678     141.325E-03     134.759E-03
            2529            2678     141.325E-03     134.759E-03
            2514            2678     141.325E-03     134.759E-03
            2515            2679     174.403E-03     140.976E-03
            2530            2679     174.403E-03     140.976E-03
            2514            2679     174.403E-03     140.976E-03
            2531            2679     174.403E-03     140.976E-03
            2532            2680     196.745E-03     167.558E-03
            2515            2680     196.745E-03     167.558E-03
            2516            2680     196.745E-03     167.558E-03
            2531            2680     196.745E-03     167.558E-03
            2533            2681     206.823E-03     180.526E-03
            2516            2681     206.823E-03     180.526E-03
            2532            2681     206.823E-03     180.526E-03
            2517            2681     206.823E-03     180.526E-03
            2518            2682     205.985E-03     181.989E-03
            2533            2682     205.985E-03     181.989E-03
            2517            2682     205.985E-03     181.989E-03
            2534            2682     205.985E-03     181.989E-03
            2518            2683     201.016E-03     178.627E-03
            2535            2683     201.016E-03     178.627E-03
            2534            2683     201.016E-03     178.627E-03
            2519            2683     201.016E-03     178.627E-03
            2535            2684     192.811E-03     171.951E-03
            2520            2684     192.811E-03     171.951E-03
            2519            2684     192.811E-03     171.951E-03
            2536            2684     192.811E-03     171.951E-03
            2520            2685     183.562E-03     164.128E-03
            2521            2685     183.562E-03     164.128E-03
            2537            2685     183.562E-03     164.128E-03
            2536            2685     183.562E-03     164.128E-03
            2538            2686     173.837E-03     156.053E-03
            2522            2686     173.837E-03     156.053E-03
            2537            2686     173.837E-03     156.053E-03
            2521            2686     173.837E-03     156.053E-03
            2539            2687     164.331E-03     148.263E-03
            2522            2687     164.331E-03     148.263E-03
            2538            2687     164.331E-03     148.263E-03
            2523            2687     164.331E-03     148.263E-03
            2540            2688     155.251E-03     141.235E-03
            2539            2688     155.251E-03     141.235E-03
            2524            2688     155.251E-03     141.235E-03
            2523            2688     155.251E-03     141.235E-03
            2524            2689     147.023E-03     135.612E-03
            2541            2689     147.023E-03     135.612E-03
            2525            2689     147.023E-03     135.612E-03
            2540            2689     147.023E-03     135.612E-03
            2541            2690     139.623E-03     131.117E-03
            2542            2690     139.623E-03     131.117E-03
            2526            2690     139.623E-03     131.117E-03
            2525            2690     139.623E-03     131.117E-03
            2527            2691     132.871E-03     130.185E-03
            2526            2691     132.871E-03     130.185E-03
            2542            2691     132.871E-03     130.185E-03
            2543            2691     132.871E-03     130.185E-03
            2544            2692     122.019E-03     136.381E-03
            2527            2692     122.019E-03     136.381E-03
            2528            2692     122.019E-03     136.381E-03
            2543            2692     122.019E-03     136.381E-03
            2658            2768         1.40345         1.43326
            2641            2768         1.40345         1.43326
            2657            2768         1.40345         1.43326
            2642            2768         1.40345         1.43326
            2642            2769         1.31956         1.34512
            2643            2769         1.31956         1.34512
            2659            2769         1.31956         1.34512
            2658            2769         1.31956         1.34512
            2659            2770         1.22678         1.25224
            2644            2770         1.22678         1.25224
            2660            2770         1.22678         1.25224
            2643            2770         1.22678         1.25224
            2661            2771         1.13403         1.16203
            2660            2771         1.13403         1.16203
            2645            2771         1.13403         1.16203
            2644            2771         1.13403         1.16203
            2646            2772         1.04330         1.06858
            2661            2772         1.04330         1.06858
            2662            2772         1.04330         1.06858
            2645            2772         1.04330         1.06858
            2646            2773     950.320E-03     977.952E-03
            2662            2773     950.320E-03     977.952E-03
            2663            2773     950.320E-03     977.952E-03
            2647            2773     950.320E-03     977.952E-03
            2664            2774     859.515E-03     885.568E-03
            2648            2774     859.515E-03     885.568E-03
            2647            2774     859.515E-03     885.568E-03
            2663            2774     859.515E-03     885.568E-03
            2665            2775     767.669E-03     794.864E-03
            2648            2775     767.669E-03     794.864E-03
            2664            2775     767.669E-03     794.864E-03
            2649            2775     767.669E-03     794.864E-03
            2649            2776     677.033E-03     703.727E-03
            2665            2776     677.033E-03     703.727E-03
            2650            2776     677.033E-03     703.727E-03
            2666            2776     677.033E-03     703.727E-03
            2667            2777     586.481E-03     613.656E-03
            2650            2777     586.481E-03     613.656E-03
            2666            2777     586.481E-03     613.656E-03
            2651            2777     586.481E-03     613.656E-03
            2668            2778     496.993E-03     524.271E-03
            2667            2778     496.993E-03     524.271E-03
            2652            2778     496.993E-03     524.271E-03
            2651            2778     496.993E-03     524.271E-03
            2653            2779     408.806E-03     436.502E-03
            2669            2779     408.806E-03     436.502E-03
            2652            2779     408.806E-03     436.502E-03
            2668            2779     408.806E-03     436.502E-03
            2670            2780     323.534E-03     351.554E-03
            2653            2780     323.534E-03     351.554E-03
            2654            2780     323.534E-03     351.554E-03
            2669            2780     323.534E-03     351.554E-03
            2654            2781     243.823E-03     271.733E-03
            2671            2781     243.823E-03     271.733E-03
            2670            2781     243.823E-03     271.733E-03
            2655            2781     243.823E-03     271.733E-03
            2672            2782     184.821E-03     207.717E-03
            2671            2782     184.821E-03     207.717E-03
            2656            2782     184.821E-03     207.717E-03
            2655            2782     184.821E-03     207.717E-03
            2658            2783         1.32464         1.34354
            2657            2783         1.32464         1.34354
            2674            2783         1.32464         1.34354
            2673            2783         1.32464         1.34354
            2659            2784         1.22520         1.23383
            2674            2784         1.22520         1.23383
            2675            2784         1.22520         1.23383
            2658            2784         1.22520         1.23383
            2675            2785         1.13517         1.14404
            2676            2785         1.13517         1.14404
            2659            2785         1.13517         1.14404
            2660            2785         1.13517         1.14404
            2677            2786         1.05280         1.06419
            2676            2786         1.05280         1.06419
            2661            2786         1.05280         1.06419
            2660            2786         1.05280         1.06419
            2661            2787     969.163E-03     978.978E-03
            2662            2787     969.163E-03     978.978E-03
            2678            2787     969.163E-03     978.978E-03
            2677            2787     969.163E-03     978.978E-03
            2678            2788     883.749E-03     895.342E-03
            2663            2788     883.749E-03     895.342E-03
            2662            2788     883.749E-03     895.342E-03
            2679            2788     883.749E-03     895.342E-03
            2663            2789     799.992E-03     810.448E-03
            2680            2789     799.992E-03     810.448E-03
            2679            2789     799.992E-03     810.448E-03
            2664            2789     799.992E-03     810.448E-03
            2664            2790     715.261E-03     726.842E-03
            2665            2790     715.261E-03     726.842E-03
            2681            2790     715.261E-03     726.842E-03
            2680            2790     715.261E-03     726.842E-03
            2681            2791     631.656E-03     642.865E-03
            2666            2791     631.656E-03     642.865E-03
            2682            2791     631.656E-03     642.865E-03
            2665            2791     631.656E-03     642.865E-03
            2682            2792     548.019E-03     559.911E-03
            2666            2792     548.019E-03     559.911E-03
            2667            2792     548.019E-03     559.911E-03
            2683            2792     548.019E-03     559.911E-03
            2667            2793     465.499E-03     477.505E-03
            2684            2793     465.499E-03     477.505E-03
            2668            2793     465.499E-03     477.505E-03
            2683            2793     465.499E-03     477.505E-03
            2685            2794     383.859E-03     396.733E-03
            2669            2794     383.859E-03     396.733E-03
            2668            2794     383.859E-03     396.733E-03
            2684            2794     383.859E-03     396.733E-03
            2670            2795     304.430E-03     319.067E-03
            2686            2795     304.430E-03     319.067E-03
            2685            2795     304.430E-03     319.067E-03
            2669            2795     304.430E-03     319.067E-03
            2686            2796     232.251E-03     246.662E-03
            2671            2796     232.251E-03     246.662E-03
            2670            2796     232.251E-03     246.662E-03
            2687            2796     232.251E-03     246.662E-03
            2688            2797     173.627E-03     182.865E-03
            2672            2797     173.627E-03     182.865E-03
            2687            2797     173.627E-03     182.865E-03
            2671            2797     173.627E-03     182.865E-03
            2674            2798         1.23335         1.29473
            2690            2798         1.23335         1.29473
            2673            2798         1.23335         1.29473
            2689            2798         1.23335         1.29473
            2674            2799         1.09600         1.16659
            2691            2799         1.09600         1.16659
            2675            2799         1.09600         1.16659
            2690            2799         1.09600         1.16659
            2676            2800         1.01151         1.08281
            2675            2800         1.01151         1.08281
            2692            2800         1.01151         1.08281
            2691            2800         1.01151         1.08281
            2693            2801     935.544E-03         1.00600
            2676            2801     935.544E-03         1.00600
            2692            2801     935.544E-03         1.00600
            2677            2801     935.544E-03         1.00600
            2677            2802     857.387E-03     927.479E-03
            2694            2802     857.387E-03     927.479E-03
            2678            2802     857.387E-03     927.479E-03
            2693            2802     857.387E-03     927.479E-03
            2694            2803     779.661E-03     850.174E-03
            2679            2803     779.661E-03     850.174E-03
            2678            2803     779.661E-03     850.174E-03
            2695            2803     779.661E-03     850.174E-03
            2695            2804     702.363E-03     772.308E-03
            2696            2804     702.363E-03     772.308E-03
            2679            2804     702.363E-03     772.308E-03
            2680            2804     702.363E-03     772.308E-03
            2696            2805     625.109E-03     695.194E-03
            2681            2805     625.109E-03     695.194E-03
            2697            2805     625.109E-03     695.194E-03
            2680            2805     625.109E-03     695.194E-03
            2681            2806     548.482E-03     617.980E-03
            2697            2806     548.482E-03     617.980E-03
            2682            2806     548.482E-03     617.980E-03
            2698            2806     548.482E-03     617.980E-03
            2682            2807     472.171E-03     541.471E-03
            2699            2807     472.171E-03     541.471E-03
            2698            2807     472.171E-03     541.471E-03
            2683            2807     472.171E-03     541.471E-03
            2683            2808     396.859E-03     465.366E-03
            2700            2808     396.859E-03     465.366E-03
            2684            2808     396.859E-03     465.366E-03
            2699            2808     396.859E-03     465.366E-03
            2685            2809     322.709E-03     390.389E-03
            2684            2809     322.709E-03     390.389E-03
            2701            2809     322.709E-03     390.389E-03
            2700            2809     322.709E-03     390.389E-03
            2686            2810     251.614E-03     316.735E-03
            2702            2810     251.614E-03     316.735E-03
            2685            2810     251.614E-03     316.735E-03
            2701            2810     251.614E-03     316.735E-03
            2703            2811     189.288E-03     248.619E-03
            2702            2811     189.288E-03     248.619E-03
            2686            2811     189.288E-03     248.619E-03
            2687            2811     189.288E-03     248.619E-03
            2704            2812     151.519E-03     193.394E-03
            2687            2812     151.519E-03     193.394E-03
            2688            2812     151.519E-03     193.394E-03
            2703            2812     151.519E-03     193.394E-03
            2705            2813         1.16551         1.12949
            2689            2813         1.16551         1.12949
            2690            2813         1.16551         1.12949
            2706            2813         1.16551         1.12949
            2690            2814         1.14183         1.11615
            2706            2814         1.14183         1.11615
            2691            2814         1.14183         1.11615
            2707            2814         1.14183         1.11615
            2691            2815         1.06459         1.03916
            2707            2815         1.06459         1.03916
            2708            2815         1.06459         1.03916
            2692            2815         1.06459         1.03916
            2708            2816     988.436E-03     962.038E-03
            2692            2816     988.436E-03     962.038E-03
            2693            2816     988.436E-03     962.038E-03
            2709            2816     988.436E-03     962.038E-03
            2710            2817     911.900E-03     886.347E-03
            2709            2817     911.900E-03     886.347E-03
            2693            2817     911.900E-03     886.347E-03
            2694            2817     911.900E-03     886.347E-03
            2695            2818     836.183E-03     810.443E-03
            2710            2818     836.183E-03     810.443E-03
            2694            2818     836.183E-03     810.443E-03
            2711            2818     836.183E-03     810.443E-03
            2711            2819     759.835E-03     734.761E-03
            2712            2819     759.835E-03     734.761E-03
            2696            2819     759.835E-03     734.761E-03
            2695            2819     759.835E-03     734.761E-03
            2696            2820     684.124E-03     659.067E-03
            2712            2820     684.124E-03     659.067E-03
            2713            2820     684.124E-03     659.067E-03
            2697            2820     684.124E-03     659.067E-03
            2697            2821     608.587E-03     584.188E-03
            2713            2821     608.587E-03     584.188E-03
            2698            2821     608.587E-03     584.188E-03
            2714            2821     608.587E-03     584.188E-03
            2698            2822     534.045E-03     510.081E-03
            2699            2822     534.045E-03     510.081E-03
            2715            2822     534.045E-03     510.081E-03
            2714            2822     534.045E-03     510.081E-03
            2715            2823     460.511E-03     437.619E-03
            2699            2823     460.511E-03     437.619E-03
            2700            2823     460.511E-03     437.619E-03
            2716            2823     460.511E-03     437.619E-03
            2700            2824     389.171E-03     367.531E-03
            2716            2824     389.171E-03     367.531E-03
            2717            2824     389.171E-03     367.531E-03
            2701            2824     389.171E-03     367.531E-03
            2717            2825     321.492E-03     301.052E-03
            2701            2825     321.492E-03     301.052E-03
            2702            2825     321.492E-03     301.052E-03
            2718            2825     321.492E-03     301.052E-03
            2718            2826     260.405E-03     245.365E-03
            2702            2826     260.405E-03     245.365E-03
            2719            2826     260.405E-03     245.365E-03
            2703            2826     260.405E-03     245.365E-03
            2720            2827     214.558E-03     212.238E-03
            2704            2827     214.558E-03     212.238E-03
            2703            2827     214.558E-03     212.238E-03
            2719            2827     214.558E-03     212.238E-03
            2916            2952     419.719E-06     450.960E-06
            2931            2952     419.719E-06     450.960E-06
            2932            2952     419.719E-06     450.960E-06
            2915            2952     419.719E-06     450.960E-06
            2917            2953     318.311E-06     355.115E-06
            2932            2953     318.311E-06     355.115E-06
            2933            2953     318.311E-06     355.115E-06
            2916            2953     318.311E-06     355.115E-06
            2918            2954     284.094E-06     320.750E-06
            2934            2954     284.094E-06     320.750E-06
            2933            2954     284.094E-06     320.750E-06
            2917            2954     284.094E-06     320.750E-06
            2919            2955     273.887E-06     309.279E-06
            2918            2955     273.887E-06     309.279E-06
            2934            2955     273.887E-06     309.279E-06
            2935            2955     273.887E-06     309.279E-06
            2936            2956     265.344E-06     299.240E-06
            2919            2956     265.344E-06     299.240E-06
            2920            2956     265.344E-06     299.240E-06
            2935            2956     265.344E-06     299.240E-06
            2920            2957     257.145E-06     290.136E-06
            2921            2957     257.145E-06     290.136E-06
            2937            2957     257.145E-06     290.136E-06
            2936            2957     257.145E-06     290.136E-06
            2937            2958     248.723E-06     280.649E-06
            2921            2958     248.723E-06     280.649E-06
            2922            2958     248.723E-06     280.649E-06
            2938            2958     248.723E-06     280.649E-06
            2938            2959     241.129E-06     271.680E-06
            2922            2959     241.129E-06     271.680E-06
            2923            2959     241.129E-06     271.680E-06
            2939            2959     241.129E-06     271.680E-06
            2924            2960     234.276E-06     263.110E-06
            2923            2960     234.276E-06     263.110E-06
            2939            2960     234.276E-06     263.110E-06
            2940            2960     234.276E-06     263.110E-06
            2925            2961     228.813E-06     255.236E-06
            2924            2961     228.813E-06     255.236E-06
            2940            2961     228.813E-06     255.236E-06
            2941            2961     228.813E-06     255.236E-06
            2941            2962     224.455E-06     248.158E-06
            2926            2962     224.455E-06     248.158E-06
            2942            2962     224.455E-06     248.158E-06
            2925            2962     224.455E-06     248.158E-06
            2926            2963     221.741E-06     241.651E-06
            2927            2963     221.741E-06     241.651E-06
            2942            2963     221.741E-06     241.651E-06
            2943            2963     221.741E-06     241.651E-06
            2927            2964     219.793E-06     235.486E-06
            2943            2964     219.793E-06     235.486E-06
            2928            2964     219.793E-06     235.486E-06
            2944            2964     219.793E-06     235.486E-06
            2944            2965     216.685E-06     233.730E-06
            2929            2965     216.685E-06     233.730E-06
            2945            2965     216.685E-06     233.730E-06
            2928            2965     216.685E-06     233.730E-06
            2945            2966     215.862E-06     233.384E-06
            2929            2966     215.862E-06     233.384E-06
            2946            2966     215.862E-06     233.384E-06
            2930            2966     215.862E-06     233.384E-06
            2932            2967     351.844E-06     357.852E-06
            2948            2967     351.844E-06     357.852E-06
            2931            2967     351.844E-06     357.852E-06
            2947            2967     351.844E-06     357.852E-06
            2949            2968     319.104E-06     336.867E-06
            2948            2968     319.104E-06     336.867E-06
            2932            2968     319.104E-06     336.867E-06
            2933            2968     319.104E-06     336.867E-06
            2933            2969     301.749E-06     324.346E-06
            2949            2969     301.749E-06     324.346E-06
            2950            2969     301.749E-06     324.346E-06
            2934            2969     301.749E-06     324.346E-06
            2935            2970     293.121E-06     315.082E-06
            2934            2970     293.121E-06     315.082E-06
            2950            2970     293.121E-06     315.082E-06
            2951            2970     293.121E-06     315.082E-06
            2935            2971     283.049E-06     303.413E-06
            2951            2971     283.049E-06     303.413E-06
            2936            2971     283.049E-06     303.413E-06
            2952            2971     283.049E-06     303.413E-06
            2936            2972     271.740E-06     292.091E-06
            2953            2972     271.740E-06     292.091E-06
            2937            2972     271.740E-06     292.091E-06
            2952            2972     271.740E-06     292.091E-06
            2937            2973     262.293E-06     281.790E-06
            2953            2973     262.293E-06     281.790E-06
            2954            2973     262.293E-06     281.790E-06
            2938            2973     262.293E-06     281.790E-06
            2938            2974     253.601E-06     272.505E-06
            2954            2974     253.601E-06     272.505E-06
            2939            2974     253.601E-06     272.505E-06
            2955            2974     253.601E-06     272.505E-06
            2939            2975     246.451E-06     264.403E-06
            2940            2975     246.451E-06     264.403E-06
            2956            2975     246.451E-06     264.403E-06
            2955            2975     246.451E-06     264.403E-06
            2941            2976     240.482E-06     257.142E-06
            2956            2976     240.482E-06     257.142E-06
            2957            2976     240.482E-06     257.142E-06
            2940            2976     240.482E-06     257.142E-06
            2942            2977     235.664E-06     251.118E-06
            2941            2977     235.664E-06     251.118E-06
            2958            2977     235.664E-06     251.118E-06
            2957            2977     235.664E-06     251.118E-06
            2942            2978     232.395E-06     245.887E-06
            2959            2978     232.395E-06     245.887E-06
            2943            2978     232.395E-06     245.887E-06
            2958            2978     232.395E-06     245.887E-06
            2959            2979     230.720E-06     241.521E-06
            2943            2979     230.720E-06     241.521E-06
            2960            2979     230.720E-06     241.521E-06
            2944            2979     230.720E-06     241.521E-06
            2961            2980     231.612E-06     236.524E-06
            2945            2980     231.612E-06     236.524E-06
            2960            2980     231.612E-06     236.524E-06
            2944            2980     231.612E-06     236.524E-06
            2961            2981     239.677E-06     227.607E-06
            2945            2981     239.677E-06     227.607E-06
            2962            2981     239.677E-06     227.607E-06
            2946            2981     239.677E-06     227.607E-06
            2948            2982     250.836E-06     261.088E-06
            2963            2982     250.836E-06     261.088E-06
            2947            2982     250.836E-06     261.088E-06
            2964            2982     250.836E-06     261.088E-06
            2949            2983     280.430E-06     296.081E-06
            2964            2983     280.430E-06     296.081E-06
            2965            2983     280.430E-06     296.081E-06
            2948            2983     280.430E-06     296.081E-06
            2949            2984     310.012E-06     319.160E-06
            2965            2984     310.012E-06     319.160E-06
            2966            2984     310.012E-06     319.160E-06
            2950            2984     310.012E-06     319.160E-06
            2951            2985     307.305E-06     313.607E-06
            2966            2985     307.305E-06     313.607E-06
            2967            2985     307.305E-06     313.607E-06
            2950            2985     307.305E-06     313.607E-06
            2967            2986     296.013E-06     303.096E-06
            2968            2986     296.013E-06     303.096E-06
            2951            2986     296.013E-06     303.096E-06
            2952            2986     296.013E-06     303.096E-06
            2953            2987     285.067E-06     291.436E-06
            2969            2987     285.067E-06     291.436E-06
            2968            2987     285.067E-06     291.436E-06
            2952            2987     285.067E-06     291.436E-06
            2969            2988     274.574E-06     281.267E-06
            2970            2988     274.574E-06     281.267E-06
            2953            2988     274.574E-06     281.267E-06
            2954            2988     274.574E-06     281.267E-06
            2954            2989     266.126E-06     272.626E-06
            2970            2989     266.126E-06     272.626E-06
            2955            2989     266.126E-06     272.626E-06
            2971            2989     266.126E-06     272.626E-06
            2955            2990     258.843E-06     265.215E-06
            2956            2990     258.843E-06     265.215E-06
            2972            2990     258.843E-06     265.215E-06
            2971            2990     258.843E-06     265.215E-06
            2972            2991     252.724E-06     259.209E-06
            2973            2991     252.724E-06     259.209E-06
            2956            2991     252.724E-06     259.209E-06
            2957            2991     252.724E-06     259.209E-06
            2974            2992     247.874E-06     254.009E-06
            2957            2992     247.874E-06     254.009E-06
            2958            2992     247.874E-06     254.009E-06
            2973            2992     247.874E-06     254.009E-06
            2974            2993     243.675E-06     250.409E-06
            2958            2993     243.675E-06     250.409E-06
            2975            2993     243.675E-06     250.409E-06
            2959            2993     243.675E-06     250.409E-06
            2959            2994     241.794E-06     247.967E-06
            2976            2994     241.794E-06     247.967E-06
            2960            2994     241.794E-06     247.967E-06
            2975            2994     241.794E-06     247.967E-06
            2960            2995     247.318E-06     239.758E-06
            2976            2995     247.318E-06     239.758E-06
            2977            2995     247.318E-06     239.758E-06
            2961            2995     247.318E-06     239.758E-06
            2977            2996     253.108E-06     226.911E-06
            2961            2996     253.108E-06     226.911E-06
            2962            2996     253.108E-06     226.911E-06
            2978            2996     253.108E-06     226.911E-06
            2980            2997     169.973E-06     170.808E-06
            2964            2997     169.973E-06     170.808E-06
            2979            2997     169.973E-06     170.808E-06
            2963            2997     169.973E-06     170.808E-06
            2981            2998     249.857E-06     251.185E-06
            2980            2998     249.857E-06     251.185E-06
            2964            2998     249.857E-06     251.185E-06
            2965            2998     249.857E-06     251.185E-06
            2981            2999     301.895E-06     293.750E-06
            2966            2999     301.895E-06     293.750E-06
            2965            2999     301.895E-06     293.750E-06
            2982            2999     301.895E-06     293.750E-06
            2967            3000     308.516E-06     299.485E-06
            2982            3000     308.516E-06     299.485E-06
            2983            3000     308.516E-06     299.485E-06
            2966            3000     308.516E-06     299.485E-06
            2983            3001     302.696E-06     294.055E-06
            2984            3001     302.696E-06     294.055E-06
            2967            3001     302.696E-06     294.055E-06
            2968            3001     302.696E-06     294.055E-06
            2969            3002     294.058E-06     286.234E-06
            2968            3002     294.058E-06     286.234E-06
            2984            3002     294.058E-06     286.234E-06
            2985            3002     294.058E-06     286.234E-06
            2985            3003     285.783E-06     278.572E-06
            2969            3003     285.783E-06     278.572E-06
            2986            3003     285.783E-06     278.572E-06
            2970            3003     285.783E-06     278.572E-06
            2970            3004     278.261E-06     271.799E-06
            2987            3004     278.261E-06     271.799E-06
            2986            3004     278.261E-06     271.799E-06
            2971            3004     278.261E-06     271.799E-06
            2987            3005     271.663E-06     266.126E-06
            2971            3005     271.663E-06     266.126E-06
            2972            3005     271.663E-06     266.126E-06
            2988            3005     271.663E-06     266.126E-06
            2988            3006     265.897E-06     261.212E-06
            2973            3006     265.897E-06     261.212E-06
            2972            3006     265.897E-06     261.212E-06
            2989            3006     265.897E-06     261.212E-06
            2990            3007     260.729E-06     257.512E-06
            2989            3007     260.729E-06     257.512E-06
            2974            3007     260.729E-06     257.512E-06
            2973            3007     260.729E-06     257.512E-06
            2974            3008     256.544E-06     254.621E-06
            2990            3008     256.544E-06     254.621E-06
            2975            3008     256.544E-06     254.621E-06
            2991            3008     256.544E-06     254.621E-06
            2976            3009     252.993E-06     253.014E-06
            2992            3009     252.993E-06     253.014E-06
            2975            3009     252.993E-06     253.014E-06
            2991            3009     252.993E-06     253.014E-06
            2976            3010     251.114E-06     252.811E-06
            2993            3010     251.114E-06     252.811E-06
            2992            3010     251.114E-06     252.811E-06
            2977            3010     251.114E-06     252.811E-06
            2993            3011     257.764E-06     247.376E-06
            2977            3011     257.764E-06     247.376E-06
            2994            3011     257.764E-06     247.376E-06
            2978            3011     257.764E-06     247.376E-06
            2980            3012     131.654E-06     140.937E-06
            2995            3012     131.654E-06     140.937E-06
            2979            3012     131.654E-06     140.937E-06
            2996            3012     131.654E-06     140.937E-06
            2997            3013     230.737E-06     200.962E-06
            2996            3013     230.737E-06     200.962E-06
            2980            3013     230.737E-06     200.962E-06
            2981            3013     230.737E-06     200.962E-06
            2982            3014     279.604E-06     251.995E-06
            2981            3014     279.604E-06     251.995E-06
            2998            3014     279.604E-06     251.995E-06
            2997            3014     279.604E-06     251.995E-06
            2983            3015     299.189E-06     273.707E-06
            2982            3015     299.189E-06     273.707E-06
            2998            3015     299.189E-06     273.707E-06
            2999            3015     299.189E-06     273.707E-06
            2984            3016     303.584E-06     278.941E-06
            2983            3016     303.584E-06     278.941E-06
            3000            3016     303.584E-06     278.941E-06
            2999            3016     303.584E-06     278.941E-06
            2985            3017     300.910E-06     278.208E-06
            2984            3017     300.910E-06     278.208E-06
            3000            3017     300.910E-06     278.208E-06
            3001            3017     300.910E-06     278.208E-06
            3002            3018     296.349E-06     274.892E-06
            3001            3018     296.349E-06     274.892E-06
            2985            3018     296.349E-06     274.892E-06
            2986            3018     296.349E-06     274.892E-06
            2986            3019     290.806E-06     271.087E-06
            2987            3019     290.806E-06     271.087E-06
            3003            3019     290.806E-06     271.087E-06
            3002            3019     290.806E-06     271.087E-06
            3004            3020     285.239E-06     267.340E-06
            2987            3020     285.239E-06     267.340E-06
            3003            3020     285.239E-06     267.340E-06
            2988            3020     285.239E-06     267.340E-06
            3004            3021     279.918E-06     263.996E-06
            2988            3021     279.918E-06     263.996E-06
            2989            3021     279.918E-06     263.996E-06
            3005            3021     279.918E-06     263.996E-06
            2990            3022     274.773E-06     261.391E-06
            3006            3022     274.773E-06     261.391E-06
            2989            3022     274.773E-06     261.391E-06
            3005            3022     274.773E-06     261.391E-06
            2991            3023     270.281E-06     259.364E-06
            2990            3023     270.281E-06     259.364E-06
            3006            3023     270.281E-06     259.364E-06
            3007            3023     270.281E-06     259.364E-06
            2992            3024     265.306E-06     258.243E-06
            2991            3024     265.306E-06     258.243E-06
            3007            3024     265.306E-06     258.243E-06
            3008            3024     265.306E-06     258.243E-06
            3009            3025     258.164E-06     262.316E-06
            3008            3025     258.164E-06     262.316E-06
            2993            3025     258.164E-06     262.316E-06
            2992            3025     258.164E-06     262.316E-06
            3010            3026     252.284E-06     270.115E-06
            2994            3026     252.284E-06     270.115E-06
            2993            3026     252.284E-06     270.115E-06
            3009            3026     252.284E-06     270.115E-06


  Minimum                            67.0317E-06     114.656E-06
      At Element                            2995            2995
            Node                             596             596

  Maximum                                1.59313         1.66619
      At Element                            1737            2641
            Node                             389              20

           Total                     1.53675E+03     1.58707E+03


