********************************************************************************
Field Output Report, written Thu Feb 22 16:00:21 2018

Source 1
---------

   ODB: C:/Users/JMJFVA~1/AppData/Local/Temp/CRJ700n.odb
   Step: RotateUp
   Frame: Increment      1: Step Time =    1.000

Loc 1 : Element nodal  values at shell < ALUMINIUM > < 5 section points > from source 1 : SNEG, (fraction = -1.0) ( Average criteria = 75%, Not averaged across region boundaries )
Loc 2 : Element nodal  values at shell < ALUMINIUM > < 5 section points > from source 1 : SPOS, (fraction = 1.0) ( Average criteria = 75%, Not averaged across region boundaries )

Output sorted by column "Node Label".

Field Output reported at element nodes for region: CRJ700-1.Region_1
   Computation algorithm: EXTRAPOLATE_COMPUTE_AVERAGE
   Averaged at nodes
   Averaging regions: ODB_REGIONS

   Element Label      Node Label         S.Mises         S.Mises
                                          @Loc 1          @Loc 2
-----------------------------------------------------------------
             645               2     34.4953E-03     34.9028E-03
            1858               2     34.4953E-03     34.9028E-03
            2023               3         1.41027         1.52581
            1648               3         1.41027         1.52581
            1618               5     34.4953E-03     34.9028E-03
             675               5     34.4953E-03     34.9028E-03
            1643               6     10.9571E-15     10.4388E-15
             641               8     100.140E-03     100.513E-03
            1622               8     100.140E-03     100.513E-03
             671               8     100.140E-03     100.513E-03
            1862               8     100.140E-03     100.513E-03
             670               9     4.32022E-15     7.54149E-15
            1647              10     17.9131E-15     18.5998E-15
             666              10     17.9131E-15     18.5998E-15
            2725              11         1.41027         1.52581
             840              11         1.41027         1.52581
             836              12     324.899E-03     324.254E-03
            2721              12     324.899E-03     324.254E-03
            1652              12     324.899E-03     324.254E-03
            2027              12     324.899E-03     324.254E-03
            1668              16         1.60215         1.76882
            2145              16         1.60215         1.76882
            1672              19     514.637E-03     510.506E-03
            1833              19     514.637E-03     510.506E-03
            2149              19     514.637E-03     510.506E-03
            2741              19     514.637E-03     510.506E-03
            1837              20         1.60215         1.76882
            2745              20         1.60215         1.76882
            2764              21         1.03662         1.16938
            2165              21         1.03662         1.16938
            1857              23         1.03662         1.16938
            2174              23         1.03662         1.16938
            1853              24     758.568E-03     765.673E-03
            2170              24     758.568E-03     765.673E-03
            2169              24     758.568E-03     765.673E-03
            2768              24     758.568E-03     765.673E-03
            3191              26     83.9078E-03     84.8968E-03
            2224              26     83.9078E-03     84.8968E-03
            2220              27     244.026E-03     244.934E-03
            2856              27     244.026E-03     244.934E-03
            3187              27     244.026E-03     244.934E-03
            2818              27     244.026E-03     244.934E-03
            2852              28     83.9078E-03     84.8968E-03
            2814              28     83.9078E-03     84.8968E-03
            2877              31     10.4025E-15     9.05496E-15
            3216              34     10.4461E-15     10.9235E-15
            3212              35     14.6513E-15     14.7929E-15
            2881              35     14.6513E-15     14.7929E-15
            1863              51     64.3591E-03     78.2794E-03
            1858              51     64.3591E-03     78.2794E-03
            1863              52     42.4428E-03     66.1605E-03
            1868              52     42.4428E-03     66.1605E-03
            1873              53     71.3727E-03     77.1473E-03
            1868              53     71.3727E-03     77.1473E-03
            1873              54     157.912E-03     143.290E-03
            1878              54     157.912E-03     143.290E-03
            1883              55     217.478E-03     237.242E-03
            1878              55     217.478E-03     237.242E-03
            1888              56     322.437E-03     306.681E-03
            1883              56     322.437E-03     306.681E-03
            1893              57     404.788E-03     402.572E-03
            1888              57     404.788E-03     402.572E-03
            1898              58     340.570E-03     377.726E-03
            1893              58     340.570E-03     377.726E-03
            1898              59     314.292E-03     299.919E-03
            1903              59     314.292E-03     299.919E-03
            1908              60     388.624E-03     367.903E-03
            1903              60     388.624E-03     367.903E-03
            1913              61     443.685E-03     471.759E-03
            1908              61     443.685E-03     471.759E-03
            1918              62     566.225E-03     539.394E-03
            1913              62     566.225E-03     539.394E-03
            1918              63     655.884E-03     645.563E-03
            1923              63     655.884E-03     645.563E-03
            1928              64     581.843E-03     647.694E-03
            1923              64     581.843E-03     647.694E-03
            1928              65     578.742E-03     547.318E-03
            1933              65     578.742E-03     547.318E-03
            1938              66     630.509E-03     621.758E-03
            1933              66     630.509E-03     621.758E-03
            1943              67     697.115E-03     691.003E-03
            1938              67     697.115E-03     691.003E-03
            1948              68     756.718E-03     785.258E-03
            1943              68     756.718E-03     785.258E-03
            1953              69     885.171E-03     854.348E-03
            1948              69     885.171E-03     854.348E-03
            1953              70     982.495E-03     960.456E-03
            1958              70     982.495E-03     960.456E-03
            1958              71     879.890E-03     979.816E-03
            1963              71     879.890E-03     979.816E-03
            1963              72     889.908E-03     847.714E-03
            1968              72     889.908E-03     847.714E-03
            1968              73     933.550E-03     916.759E-03
            1973              73     933.550E-03     916.759E-03
            1978              74     987.736E-03     986.177E-03
            1973              74     987.736E-03     986.177E-03
            1978              75         1.04734         1.08044
            1983              75         1.04734         1.08044
            1988              76         1.18824         1.14940
            1983              76         1.18824         1.14940
            1993              77         1.29402         1.26128
            1988              77         1.29402         1.26128
            1993              78         1.17070         1.30134
            1998              78         1.17070         1.30134
            2003              79         1.19222         1.15383
            1998              79         1.19222         1.15383
            2008              80         1.25610         1.19149
            2003              80         1.25610         1.19149
            2008              81         1.24941         1.32891
            2013              81         1.24941         1.32891
            2013              82         1.43373         1.36315
            2018              82         1.43373         1.36315
            2018              83         1.53480         1.50098
            2023              83         1.53480         1.50098
            1623             147     11.7700E-15     12.7812E-15
            1618             147     11.7700E-15     12.7812E-15
            1623             148     10.8180E-15     12.0925E-15
            1628             148     10.8180E-15     12.0925E-15
            1633             149     9.18775E-15     9.00182E-15
            1628             149     9.18775E-15     9.00182E-15
            1633             150     10.2987E-15     8.78126E-15
            1638             150     10.2987E-15     8.78126E-15
            1643             151     11.6621E-15     10.0644E-15
            1638             151     11.6621E-15     10.0644E-15
            1861             172     96.2899E-03     96.6640E-03
             641             172     96.2899E-03     96.6640E-03
             642             172     96.2899E-03     96.6640E-03
            1862             172     96.2899E-03     96.6640E-03
             643             173     85.1258E-03     85.5048E-03
            1860             173     85.1258E-03     85.5048E-03
            1861             173     85.1258E-03     85.5048E-03
             642             173     85.1258E-03     85.5048E-03
             643             174     67.7852E-03     68.1725E-03
             644             174     67.7852E-03     68.1725E-03
            1859             174     67.7852E-03     68.1725E-03
            1860             174     67.7852E-03     68.1725E-03
             645             175     46.1267E-03     46.5267E-03
            1859             175     46.1267E-03     46.5267E-03
            1858             175     46.1267E-03     46.5267E-03
             644             175     46.1267E-03     46.5267E-03
             645             176     11.2795E-15     10.7214E-15
             650             176     11.2795E-15     10.7214E-15
             655             177     8.17458E-15     7.81991E-15
             650             177     8.17458E-15     7.81991E-15
             660             178     12.6838E-15     11.6891E-15
             655             178     12.6838E-15     11.6891E-15
             665             179     17.8248E-15     16.1297E-15
             660             179     17.8248E-15     16.1297E-15
             670             180     12.1244E-15     13.4751E-15
             665             180     12.1244E-15     13.4751E-15
             670             181     14.4563E-15     14.1804E-15
             669             181     14.4563E-15     14.1804E-15
             669             182     25.6512E-15     22.2496E-15
             668             182     25.6512E-15     22.2496E-15
             667             183     28.4010E-15     26.8757E-15
             668             183     28.4010E-15     26.8757E-15
             666             184     27.1432E-15     28.3828E-15
             667             184     27.1432E-15     28.3828E-15
            1647             185     21.6684E-15     23.2745E-15
             666             185     21.6684E-15     23.2745E-15
             661             185     21.6684E-15     23.2745E-15
            1642             185     21.6684E-15     23.2745E-15
            1642             186     21.2145E-15     22.6297E-15
             656             186     21.2145E-15     22.6297E-15
            1637             186     21.2145E-15     22.6297E-15
             661             186     21.2145E-15     22.6297E-15
             651             187     11.5668E-15     11.7319E-15
            1632             187     11.5668E-15     11.7319E-15
            1637             187     11.5668E-15     11.7319E-15
             656             187     11.5668E-15     11.7319E-15
             651             188     4.98350E-15     5.94206E-15
            1632             188     4.98350E-15     5.94206E-15
            1627             188     4.98350E-15     5.94206E-15
             646             188     4.98350E-15     5.94206E-15
             646             189     7.21573E-15     8.03248E-15
            1622             189     7.21573E-15     8.03248E-15
            1627             189     7.21573E-15     8.03248E-15
             641             189     7.21573E-15     8.03248E-15
             672             190     96.2899E-03     96.6640E-03
            1622             190     96.2899E-03     96.6640E-03
            1621             190     96.2899E-03     96.6640E-03
             671             190     96.2899E-03     96.6640E-03
            1621             191     85.1258E-03     85.5048E-03
             673             191     85.1258E-03     85.5048E-03
            1620             191     85.1258E-03     85.5048E-03
             672             191     85.1258E-03     85.5048E-03
             673             192     67.7852E-03     68.1725E-03
             674             192     67.7852E-03     68.1725E-03
            1619             192     67.7852E-03     68.1725E-03
            1620             192     67.7852E-03     68.1725E-03
            1619             193     46.1267E-03     46.5267E-03
             675             193     46.1267E-03     46.5267E-03
            1618             193     46.1267E-03     46.5267E-03
             674             193     46.1267E-03     46.5267E-03
             675             194     64.3591E-03     78.2794E-03
             680             194     64.3591E-03     78.2794E-03
             685             195     42.4428E-03     66.1605E-03
             680             195     42.4428E-03     66.1605E-03
             685             196     71.3727E-03     77.1473E-03
             690             196     71.3727E-03     77.1473E-03
             690             197     157.912E-03     143.290E-03
             695             197     157.912E-03     143.290E-03
             695             198     217.478E-03     237.242E-03
             700             198     217.478E-03     237.242E-03
             700             199     322.437E-03     306.681E-03
             705             199     322.437E-03     306.681E-03
             710             200     404.788E-03     402.572E-03
             705             200     404.788E-03     402.572E-03
             710             201     340.570E-03     377.726E-03
             715             201     340.570E-03     377.726E-03
             720             202     314.292E-03     299.919E-03
             715             202     314.292E-03     299.919E-03
             725             203     388.624E-03     367.903E-03
             720             203     388.624E-03     367.903E-03
             725             204     443.685E-03     471.759E-03
             730             204     443.685E-03     471.759E-03
             735             205     566.225E-03     539.394E-03
             730             205     566.225E-03     539.394E-03
             735             206     655.884E-03     645.563E-03
             740             206     655.884E-03     645.563E-03
             745             207     581.843E-03     647.694E-03
             740             207     581.843E-03     647.694E-03
             745             208     578.742E-03     547.318E-03
             750             208     578.742E-03     547.318E-03
             755             209     630.509E-03     621.758E-03
             750             209     630.509E-03     621.758E-03
             760             210     697.115E-03     691.003E-03
             755             210     697.115E-03     691.003E-03
             765             211     756.718E-03     785.258E-03
             760             211     756.718E-03     785.258E-03
             765             212     885.171E-03     854.348E-03
             770             212     885.171E-03     854.348E-03
             770             213     982.495E-03     960.456E-03
             775             213     982.495E-03     960.456E-03
             775             214     879.890E-03     979.816E-03
             780             214     879.890E-03     979.816E-03
             785             215     889.908E-03     847.714E-03
             780             215     889.908E-03     847.714E-03
             790             216     933.550E-03     916.759E-03
             785             216     933.550E-03     916.759E-03
             795             217     987.736E-03     986.177E-03
             790             217     987.736E-03     986.177E-03
             795             218         1.04734         1.08044
             800             218         1.04734         1.08044
             805             219         1.18824         1.14940
             800             219         1.18824         1.14940
             805             220         1.29402         1.26128
             810             220         1.29402         1.26128
             810             221         1.17070         1.30134
             815             221         1.17070         1.30134
             820             222         1.19222         1.15383
             815             222         1.19222         1.15383
             825             223         1.25610         1.19149
             820             223         1.25610         1.19149
             825             224         1.24941         1.32891
             830             224         1.24941         1.32891
             835             225         1.43373         1.36315
             830             225         1.43373         1.36315
             840             226         1.53480         1.50098
             835             226         1.53480         1.50098
             839             227         1.29748         1.44647
             840             227         1.29748         1.44647
            2724             227         1.29748         1.44647
            2725             227         1.29748         1.44647
            2723             228         1.07065         1.21975
            2724             228         1.07065         1.21975
             838             228         1.07065         1.21975
             839             228         1.07065         1.21975
             838             229     798.778E-03     879.067E-03
            2723             229     798.778E-03     879.067E-03
             837             229     798.778E-03     879.067E-03
            2722             229     798.778E-03     879.067E-03
            2721             230     482.919E-03     505.015E-03
            2722             230     482.919E-03     505.015E-03
             837             230     482.919E-03     505.015E-03
             836             230     482.919E-03     505.015E-03
             836             231     382.232E-03     368.059E-03
            2027             231     382.232E-03     368.059E-03
             831             231     382.232E-03     368.059E-03
            2022             231     382.232E-03     368.059E-03
            2022             232     387.563E-03     398.311E-03
             826             232     387.563E-03     398.311E-03
             831             232     387.563E-03     398.311E-03
            2017             232     387.563E-03     398.311E-03
             821             233     380.698E-03     397.682E-03
            2017             233     380.698E-03     397.682E-03
             826             233     380.698E-03     397.682E-03
            2012             233     380.698E-03     397.682E-03
            2007             234     391.783E-03     372.620E-03
             816             234     391.783E-03     372.620E-03
             821             234     391.783E-03     372.620E-03
            2012             234     391.783E-03     372.620E-03
             811             235     378.892E-03     376.971E-03
            2007             235     378.892E-03     376.971E-03
             816             235     378.892E-03     376.971E-03
            2002             235     378.892E-03     376.971E-03
            1997             236     355.968E-03     363.991E-03
             806             236     355.968E-03     363.991E-03
             811             236     355.968E-03     363.991E-03
            2002             236     355.968E-03     363.991E-03
             801             237     363.898E-03     353.287E-03
            1992             237     363.898E-03     353.287E-03
             806             237     363.898E-03     353.287E-03
            1997             237     363.898E-03     353.287E-03
            1987             238     367.704E-03     379.402E-03
             801             238     367.704E-03     379.402E-03
             796             238     367.704E-03     379.402E-03
            1992             238     367.704E-03     379.402E-03
            1982             239     359.565E-03     375.305E-03
             791             239     359.565E-03     375.305E-03
            1987             239     359.565E-03     375.305E-03
             796             239     359.565E-03     375.305E-03
            1977             240     370.719E-03     361.512E-03
             786             240     370.719E-03     361.512E-03
            1982             240     370.719E-03     361.512E-03
             791             240     370.719E-03     361.512E-03
            1977             241     365.514E-03     349.257E-03
             781             241     365.514E-03     349.257E-03
             786             241     365.514E-03     349.257E-03
            1972             241     365.514E-03     349.257E-03
             776             242     355.510E-03     350.908E-03
             781             242     355.510E-03     350.908E-03
            1972             242     355.510E-03     350.908E-03
            1967             242     355.510E-03     350.908E-03
            1967             243     342.103E-03     343.172E-03
             776             243     342.103E-03     343.172E-03
             771             243     342.103E-03     343.172E-03
            1962             243     342.103E-03     343.172E-03
             771             244     345.177E-03     336.354E-03
            1962             244     345.177E-03     336.354E-03
            1957             244     345.177E-03     336.354E-03
             766             244     345.177E-03     336.354E-03
            1957             245     346.775E-03     355.828E-03
            1952             245     346.775E-03     355.828E-03
             761             245     346.775E-03     355.828E-03
             766             245     346.775E-03     355.828E-03
             756             246     340.226E-03     350.641E-03
            1947             246     340.226E-03     350.641E-03
             761             246     340.226E-03     350.641E-03
            1952             246     340.226E-03     350.641E-03
            1942             247     348.657E-03     340.106E-03
             756             247     348.657E-03     340.106E-03
             751             247     348.657E-03     340.106E-03
            1947             247     348.657E-03     340.106E-03
             751             248     345.092E-03     333.080E-03
            1942             248     345.092E-03     333.080E-03
            1937             248     345.092E-03     333.080E-03
             746             248     345.092E-03     333.080E-03
            1932             249     338.751E-03     334.655E-03
             746             249     338.751E-03     334.655E-03
            1937             249     338.751E-03     334.655E-03
             741             249     338.751E-03     334.655E-03
             741             250     328.947E-03     327.174E-03
            1932             250     328.947E-03     327.174E-03
             736             250     328.947E-03     327.174E-03
            1927             250     328.947E-03     327.174E-03
            1927             251     329.195E-03     321.450E-03
             736             251     329.195E-03     321.450E-03
            1922             251     329.195E-03     321.450E-03
             731             251     329.195E-03     321.450E-03
            1917             252     330.176E-03     333.886E-03
            1922             252     330.176E-03     333.886E-03
             731             252     330.176E-03     333.886E-03
             726             252     330.176E-03     333.886E-03
             726             253     327.298E-03     329.830E-03
            1912             253     327.298E-03     329.830E-03
             721             253     327.298E-03     329.830E-03
            1917             253     327.298E-03     329.830E-03
             721             254     331.826E-03     323.148E-03
            1907             254     331.826E-03     323.148E-03
            1912             254     331.826E-03     323.148E-03
             716             254     331.826E-03     323.148E-03
            1907             255     327.645E-03     325.220E-03
            1902             255     327.645E-03     325.220E-03
             711             255     327.645E-03     325.220E-03
             716             255     327.645E-03     325.220E-03
            1902             256     321.821E-03     319.594E-03
             706             256     321.821E-03     319.594E-03
             711             256     321.821E-03     319.594E-03
            1897             256     321.821E-03     319.594E-03
             706             257     324.651E-03     318.780E-03
            1892             257     324.651E-03     318.780E-03
            1897             257     324.651E-03     318.780E-03
             701             257     324.651E-03     318.780E-03
             701             258     324.821E-03     327.039E-03
            1887             258     324.821E-03     327.039E-03
             696             258     324.821E-03     327.039E-03
            1892             258     324.821E-03     327.039E-03
            1882             259     321.889E-03     322.861E-03
            1887             259     321.889E-03     322.861E-03
             696             259     321.889E-03     322.861E-03
             691             259     321.889E-03     322.861E-03
            1877             260     324.196E-03     319.941E-03
            1882             260     324.196E-03     319.941E-03
             686             260     324.196E-03     319.941E-03
             691             260     324.196E-03     319.941E-03
             686             261     324.351E-03     320.825E-03
            1872             261     324.351E-03     320.825E-03
             681             261     324.351E-03     320.825E-03
            1877             261     324.351E-03     320.825E-03
             676             262     322.865E-03     318.346E-03
            1872             262     322.865E-03     318.346E-03
             681             262     322.865E-03     318.346E-03
            1867             262     322.865E-03     318.346E-03
             676             263     260.706E-03     259.133E-03
             671             263     260.706E-03     259.133E-03
            1867             263     260.706E-03     259.133E-03
            1862             263     260.706E-03     259.133E-03
            1648             314         1.36676         1.41614
            1653             314         1.36676         1.41614
            1653             315         1.46246         1.46904
            1658             315         1.46246         1.46904
            1663             316         1.63498         1.51087
            1658             316         1.63498         1.51087
            1663             317         1.68240         1.68217
            1668             317         1.68240         1.68217
            1646             358     12.0848E-15     10.2559E-15
            1647             358     12.0848E-15     10.2559E-15
            1646             359     15.9522E-15     15.2846E-15
            1645             359     15.9522E-15     15.2846E-15
            1644             360     21.3483E-15     22.5539E-15
            1645             360     21.3483E-15     22.5539E-15
            1643             361     17.1435E-15     17.4918E-15
            1644             361     17.1435E-15     17.4918E-15
            2023             362         1.29748         1.44647
            1649             362         1.29748         1.44647
            2024             362         1.29748         1.44647
            1648             362         1.29748         1.44647
            1650             363         1.07065         1.21975
            2025             363         1.07065         1.21975
            1649             363         1.07065         1.21975
            2024             363         1.07065         1.21975
            2026             364     798.778E-03     879.067E-03
            1650             364     798.778E-03     879.067E-03
            1651             364     798.778E-03     879.067E-03
            2025             364     798.778E-03     879.067E-03
            2027             365     482.919E-03     505.015E-03
            1651             365     482.919E-03     505.015E-03
            1652             365     482.919E-03     505.015E-03
            2026             365     482.919E-03     505.015E-03
            2726             366     346.519E-03     361.805E-03
            1652             366     346.519E-03     361.805E-03
            1657             366     346.519E-03     361.805E-03
            2721             366     346.519E-03     361.805E-03
            2731             367     391.050E-03     414.138E-03
            1662             367     391.050E-03     414.138E-03
            2726             367     391.050E-03     414.138E-03
            1657             367     391.050E-03     414.138E-03
            1667             368     411.803E-03     405.238E-03
            1662             368     411.803E-03     405.238E-03
            2736             368     411.803E-03     405.238E-03
            2731             368     411.803E-03     405.238E-03
            2741             369     406.122E-03     389.220E-03
            1672             369     406.122E-03     389.220E-03
            2736             369     406.122E-03     389.220E-03
            1667             369     406.122E-03     389.220E-03
            2148             370     652.938E-03     682.529E-03
            1672             370     652.938E-03     682.529E-03
            1671             370     652.938E-03     682.529E-03
            2149             370     652.938E-03     682.529E-03
            2147             371     943.822E-03         1.04127
            1671             371     943.822E-03         1.04127
            2148             371     943.822E-03         1.04127
            1670             371     943.822E-03         1.04127
            1670             372         1.20542         1.37679
            2146             372         1.20542         1.37679
            2147             372         1.20542         1.37679
            1669             372         1.20542         1.37679
            2145             373         1.45829         1.64720
            1668             373         1.45829         1.64720
            1669             373         1.45829         1.64720
            2146             373         1.45829         1.64720
            2740             389         1.68240         1.68217
            2745             389         1.68240         1.68217
            2735             390         1.63498         1.51087
            2740             390         1.63498         1.51087
            2735             391         1.46246         1.46904
            2730             391         1.46246         1.46904
            2725             392         1.36676         1.41614
            2730             392         1.36676         1.41614
            2145             393         1.45925         1.48262
            2150             393         1.45925         1.48262
            2155             394         1.38989         1.45952
            2150             394         1.38989         1.45952
            2160             395         1.41169         1.39514
            2155             395         1.41169         1.39514
            2165             396         1.19050         1.07223
            2160             396         1.19050         1.07223
            2741             416     652.938E-03     682.529E-03
            2742             416     652.938E-03     682.529E-03
            1834             416     652.938E-03     682.529E-03
            1833             416     652.938E-03     682.529E-03
            1834             417     943.822E-03         1.04127
            1835             417     943.822E-03         1.04127
            2743             417     943.822E-03         1.04127
            2742             417     943.822E-03         1.04127
            2744             418         1.20542         1.37679
            2743             418         1.20542         1.37679
            1836             418         1.20542         1.37679
            1835             418         1.20542         1.37679
            1837             419         1.45829         1.64720
            1836             419         1.45829         1.64720
            2744             419         1.45829         1.64720
            2745             419         1.45829         1.64720
            1837             420         1.45925         1.48262
            1842             420         1.45925         1.48262
            1842             421         1.38989         1.45952
            1847             421         1.38989         1.45952
            1852             422         1.41169         1.39514
            1847             422         1.41169         1.39514
            1852             423         1.19050         1.07223
            1857             423         1.19050         1.07223
            1856             424     969.762E-03         1.14944
            1857             424     969.762E-03         1.14944
            2174             424     969.762E-03         1.14944
            2173             424     969.762E-03         1.14944
            2172             425     888.049E-03         1.06247
            2173             425     888.049E-03         1.06247
            1855             425     888.049E-03         1.06247
            1856             425     888.049E-03         1.06247
            2171             426     836.699E-03     921.281E-03
            1854             426     836.699E-03     921.281E-03
            2172             426     836.699E-03     921.281E-03
            1855             426     836.699E-03     921.281E-03
            1854             427     779.383E-03     806.393E-03
            2171             427     779.383E-03     806.393E-03
            1853             427     779.383E-03     806.393E-03
            2170             427     779.383E-03     806.393E-03
            2164             428     782.328E-03     787.770E-03
            1848             428     782.328E-03     787.770E-03
            1853             428     782.328E-03     787.770E-03
            2169             428     782.328E-03     787.770E-03
            2164             429     791.452E-03     761.656E-03
            2159             429     791.452E-03     761.656E-03
            1848             429     791.452E-03     761.656E-03
            1843             429     791.452E-03     761.656E-03
            1843             430     839.127E-03     819.447E-03
            1838             430     839.127E-03     819.447E-03
            2159             430     839.127E-03     819.447E-03
            2154             430     839.127E-03     819.447E-03
            2149             431     780.947E-03     772.660E-03
            2154             431     780.947E-03     772.660E-03
            1833             431     780.947E-03     772.660E-03
            1838             431     780.947E-03     772.660E-03
            2168             440     779.383E-03     806.393E-03
            2767             440     779.383E-03     806.393E-03
            2169             440     779.383E-03     806.393E-03
            2768             440     779.383E-03     806.393E-03
            2168             441     836.699E-03     921.281E-03
            2767             441     836.699E-03     921.281E-03
            2167             441     836.699E-03     921.281E-03
            2766             441     836.699E-03     921.281E-03
            2765             442     888.049E-03         1.06247
            2167             442     888.049E-03         1.06247
            2166             442     888.049E-03         1.06247
            2766             442     888.049E-03         1.06247
            2166             443     969.762E-03         1.14944
            2165             443     969.762E-03         1.14944
            2764             443     969.762E-03         1.14944
            2765             443     969.762E-03         1.14944
            2174             444         1.07567         1.07289
            2179             444         1.07567         1.07289
            2179             445     877.051E-03     763.431E-03
            2184             445     877.051E-03     763.431E-03
            2189             446     824.249E-03     935.793E-03
            2184             446     824.249E-03     935.793E-03
            2194             447     966.961E-03     962.636E-03
            2189             447     966.961E-03     962.636E-03
            2194             448     771.794E-03     731.576E-03
            2199             448     771.794E-03     731.576E-03
            2204             449     518.082E-03     566.321E-03
            2199             449     518.082E-03     566.321E-03
            2204             450     374.912E-03     339.733E-03
            2209             450     374.912E-03     339.733E-03
            2214             451     167.593E-03     181.258E-03
            2209             451     167.593E-03     181.258E-03
            2219             452     99.8218E-03     160.120E-03
            2214             452     99.8218E-03     160.120E-03
            2224             453     155.670E-03     191.459E-03
            2219             453     155.670E-03     191.459E-03
            3190             454     112.291E-03     113.263E-03
            2224             454     112.291E-03     113.263E-03
            3191             454     112.291E-03     113.263E-03
            2223             454     112.291E-03     113.263E-03
            2222             455     165.128E-03     166.070E-03
            3190             455     165.128E-03     166.070E-03
            2223             455     165.128E-03     166.070E-03
            3189             455     165.128E-03     166.070E-03
            2222             456     207.416E-03     208.338E-03
            2221             456     207.416E-03     208.338E-03
            3188             456     207.416E-03     208.338E-03
            3189             456     207.416E-03     208.338E-03
            3188             457     234.637E-03     235.549E-03
            2221             457     234.637E-03     235.549E-03
            3187             457     234.637E-03     235.549E-03
            2220             457     234.637E-03     235.549E-03
            2818             458     634.871E-03     631.263E-03
            2813             458     634.871E-03     631.263E-03
            2215             458     634.871E-03     631.263E-03
            2220             458     634.871E-03     631.263E-03
            2210             459     786.020E-03     775.435E-03
            2813             459     786.020E-03     775.435E-03
            2808             459     786.020E-03     775.435E-03
            2215             459     786.020E-03     775.435E-03
            2803             460     789.944E-03     781.460E-03
            2205             460     789.944E-03     781.460E-03
            2210             460     789.944E-03     781.460E-03
            2808             460     789.944E-03     781.460E-03
            2200             461     789.364E-03     779.240E-03
            2205             461     789.364E-03     779.240E-03
            2798             461     789.364E-03     779.240E-03
            2803             461     789.364E-03     779.240E-03
            2793             462     783.772E-03     786.081E-03
            2798             462     783.772E-03     786.081E-03
            2195             462     783.772E-03     786.081E-03
            2200             462     783.772E-03     786.081E-03
            2788             463     790.835E-03     795.498E-03
            2195             463     790.835E-03     795.498E-03
            2190             463     790.835E-03     795.498E-03
            2793             463     790.835E-03     795.498E-03
            2783             464     789.839E-03     775.344E-03
            2190             464     789.839E-03     775.344E-03
            2788             464     789.839E-03     775.344E-03
            2185             464     789.839E-03     775.344E-03
            2778             465     761.961E-03     769.281E-03
            2783             465     761.961E-03     769.281E-03
            2180             465     761.961E-03     769.281E-03
            2185             465     761.961E-03     769.281E-03
            2180             466     768.448E-03     771.097E-03
            2175             466     768.448E-03     771.097E-03
            2778             466     768.448E-03     771.097E-03
            2773             466     768.448E-03     771.097E-03
            2773             467     775.005E-03     747.735E-03
            2175             467     775.005E-03     747.735E-03
            2768             467     775.005E-03     747.735E-03
            2170             467     775.005E-03     747.735E-03
            2769             470         1.07567         1.07289
            2764             470         1.07567         1.07289
            2769             471     877.051E-03     763.431E-03
            2774             471     877.051E-03     763.431E-03
            2774             472     824.249E-03     935.793E-03
            2779             472     824.249E-03     935.793E-03
            2779             473     966.961E-03     962.636E-03
            2784             473     966.961E-03     962.636E-03
            2789             474     771.794E-03     731.576E-03
            2784             474     771.794E-03     731.576E-03
            2789             475     518.082E-03     566.321E-03
            2794             475     518.082E-03     566.321E-03
            2799             476     374.912E-03     339.733E-03
            2794             476     374.912E-03     339.733E-03
            2799             477     167.593E-03     181.258E-03
            2804             477     167.593E-03     181.258E-03
            2809             478     99.8218E-03     160.120E-03
            2804             478     99.8218E-03     160.120E-03
            2809             479     155.670E-03     191.459E-03
            2814             479     155.670E-03     191.459E-03
            2857             562     12.5786E-15     11.1167E-15
            2852             562     12.5786E-15     11.1167E-15
            2857             563     16.6037E-15     16.4448E-15
            2862             563     16.6037E-15     16.4448E-15
            2867             564     11.9697E-15     12.6544E-15
            2862             564     11.9697E-15     12.6544E-15
            2872             565     7.18065E-15     8.01141E-15
            2867             565     7.18065E-15     8.01141E-15
            2872             566     9.88472E-15     9.63038E-15
            2877             566     9.88472E-15     9.63038E-15
            3211             596     7.19561E-15     7.31757E-15
            3216             596     7.19561E-15     7.31757E-15
            3206             597     5.97198E-15     6.24088E-15
            3211             597     5.97198E-15     6.24088E-15
            3206             598     8.67485E-15     9.35951E-15
            3201             598     8.67485E-15     9.35951E-15
            3196             599     7.57292E-15     8.02745E-15
            3201             599     7.57292E-15     8.02745E-15
            3196             600     7.78651E-15     8.18269E-15
            3191             600     7.78651E-15     8.18269E-15
            2817             601     234.637E-03     235.549E-03
            2856             601     234.637E-03     235.549E-03
            2855             601     234.637E-03     235.549E-03
            2818             601     234.637E-03     235.549E-03
            2854             602     207.416E-03     208.338E-03
            2816             602     207.416E-03     208.338E-03
            2817             602     207.416E-03     208.338E-03
            2855             602     207.416E-03     208.338E-03
            2853             603     165.128E-03     166.070E-03
            2816             603     165.128E-03     166.070E-03
            2854             603     165.128E-03     166.070E-03
            2815             603     165.128E-03     166.070E-03
            2852             604     112.291E-03     113.263E-03
            2815             604     112.291E-03     113.263E-03
            2814             604     112.291E-03     113.263E-03
            2853             604     112.291E-03     113.263E-03
            3192             607     7.22352E-15     7.26455E-15
            2861             607     7.22352E-15     7.26455E-15
            3187             607     7.22352E-15     7.26455E-15
            2856             607     7.22352E-15     7.26455E-15
            2866             608     2.69473E-15     2.68640E-15
            3197             608     2.69473E-15     2.68640E-15
            3192             608     2.69473E-15     2.68640E-15
            2861             608     2.69473E-15     2.68640E-15
            3202             609     2.21429E-15     2.76541E-15
            2871             609     2.21429E-15     2.76541E-15
            2866             609     2.21429E-15     2.76541E-15
            3197             609     2.21429E-15     2.76541E-15
            2871             610     2.21195E-15     3.15376E-15
            3202             610     2.21195E-15     3.15376E-15
            3207             610     2.21195E-15     3.15376E-15
            2876             610     2.21195E-15     3.15376E-15
            2876             611     8.43974E-15     9.20589E-15
            3212             611     8.43974E-15     9.20589E-15
            3207             611     8.43974E-15     9.20589E-15
            2881             611     8.43974E-15     9.20589E-15
            2880             612     11.0807E-15     12.3239E-15
            2881             612     11.0807E-15     12.3239E-15
            2880             613     7.63763E-15     8.88042E-15
            2879             613     7.63763E-15     8.88042E-15
            2879             614     20.4998E-15     19.4945E-15
            2878             614     20.4998E-15     19.4945E-15
            2877             615     21.6118E-15     19.8951E-15
            2878             615     21.6118E-15     19.8951E-15
            3216             631     13.0393E-15     13.5975E-15
            3215             631     13.0393E-15     13.5975E-15
            3215             632     12.3325E-15     12.8953E-15
            3214             632     12.3325E-15     12.8953E-15
            3213             633     6.41369E-15     6.64309E-15
            3214             633     6.41369E-15     6.64309E-15
            3213             634     9.01636E-15     9.10606E-15
            3212             634     9.01636E-15     9.10606E-15
             647            1205     8.22773E-15     7.04289E-15
             641            1205     8.22773E-15     7.04289E-15
             642            1205     8.22773E-15     7.04289E-15
             646            1205     8.22773E-15     7.04289E-15
             648            1206     14.3457E-15     12.7509E-15
             647            1206     14.3457E-15     12.7509E-15
             643            1206     14.3457E-15     12.7509E-15
             642            1206     14.3457E-15     12.7509E-15
             649            1207     16.0511E-15     15.0928E-15
             648            1207     16.0511E-15     15.0928E-15
             643            1207     16.0511E-15     15.0928E-15
             644            1207     16.0511E-15     15.0928E-15
             645            1208     13.0328E-15     12.6570E-15
             650            1208     13.0328E-15     12.6570E-15
             644            1208     13.0328E-15     12.6570E-15
             649            1208     13.0328E-15     12.6570E-15
             646            1209     10.3340E-15     10.1055E-15
             651            1209     10.3340E-15     10.1055E-15
             647            1209     10.3340E-15     10.1055E-15
             652            1209     10.3340E-15     10.1055E-15
             648            1210     15.8078E-15     15.9421E-15
             652            1210     15.8078E-15     15.9421E-15
             653            1210     15.8078E-15     15.9421E-15
             647            1210     15.8078E-15     15.9421E-15
             654            1211     15.8711E-15     15.9148E-15
             648            1211     15.8711E-15     15.9148E-15
             649            1211     15.8711E-15     15.9148E-15
             653            1211     15.8711E-15     15.9148E-15
             649            1212     11.8573E-15     11.5905E-15
             654            1212     11.8573E-15     11.5905E-15
             650            1212     11.8573E-15     11.5905E-15
             655            1212     11.8573E-15     11.5905E-15
             657            1213     19.5600E-15     19.0924E-15
             656            1213     19.5600E-15     19.0924E-15
             652            1213     19.5600E-15     19.0924E-15
             651            1213     19.5600E-15     19.0924E-15
             657            1214     22.2096E-15     23.4286E-15
             658            1214     22.2096E-15     23.4286E-15
             653            1214     22.2096E-15     23.4286E-15
             652            1214     22.2096E-15     23.4286E-15
             653            1215     16.6561E-15     17.8354E-15
             659            1215     16.6561E-15     17.8354E-15
             658            1215     16.6561E-15     17.8354E-15
             654            1215     16.6561E-15     17.8354E-15
             659            1216     13.7412E-15     13.4456E-15
             654            1216     13.7412E-15     13.4456E-15
             660            1216     13.7412E-15     13.4456E-15
             655            1216     13.7412E-15     13.4456E-15
             661            1217     26.3415E-15     26.5826E-15
             662            1217     26.3415E-15     26.5826E-15
             657            1217     26.3415E-15     26.5826E-15
             656            1217     26.3415E-15     26.5826E-15
             657            1218     17.2544E-15     17.2604E-15
             658            1218     17.2544E-15     17.2604E-15
             663            1218     17.2544E-15     17.2604E-15
             662            1218     17.2544E-15     17.2604E-15
             658            1219     16.1841E-15     15.9217E-15
             663            1219     16.1841E-15     15.9217E-15
             664            1219     16.1841E-15     15.9217E-15
             659            1219     16.1841E-15     15.9217E-15
             665            1220     18.2409E-15     17.2148E-15
             660            1220     18.2409E-15     17.2148E-15
             664            1220     18.2409E-15     17.2148E-15
             659            1220     18.2409E-15     17.2148E-15
             661            1221     27.3178E-15     28.4579E-15
             667            1221     27.3178E-15     28.4579E-15
             666            1221     27.3178E-15     28.4579E-15
             662            1221     27.3178E-15     28.4579E-15
             662            1222     19.1150E-15     17.7926E-15
             667            1222     19.1150E-15     17.7926E-15
             663            1222     19.1150E-15     17.7926E-15
             668            1222     19.1150E-15     17.7926E-15
             669            1223     20.1337E-15     17.3468E-15
             663            1223     20.1337E-15     17.3468E-15
             664            1223     20.1337E-15     17.3468E-15
             668            1223     20.1337E-15     17.3468E-15
             664            1224     17.1105E-15     16.3052E-15
             670            1224     17.1105E-15     16.3052E-15
             665            1224     17.1105E-15     16.3052E-15
             669            1224     17.1105E-15     16.3052E-15
             672            1225     247.914E-03     246.528E-03
             677            1225     247.914E-03     246.528E-03
             671            1225     247.914E-03     246.528E-03
             676            1225     247.914E-03     246.528E-03
             673            1226     210.457E-03     210.787E-03
             672            1226     210.457E-03     210.787E-03
             677            1226     210.457E-03     210.787E-03
             678            1226     210.457E-03     210.787E-03
             678            1227     159.253E-03     160.499E-03
             673            1227     159.253E-03     160.499E-03
             679            1227     159.253E-03     160.499E-03
             674            1227     159.253E-03     160.499E-03
             679            1228     98.5363E-03     105.813E-03
             675            1228     98.5363E-03     105.813E-03
             674            1228     98.5363E-03     105.813E-03
             680            1228     98.5363E-03     105.813E-03
             676            1229     304.933E-03     301.565E-03
             677            1229     304.933E-03     301.565E-03
             681            1229     304.933E-03     301.565E-03
             682            1229     304.933E-03     301.565E-03
             682            1230     251.681E-03     255.416E-03
             677            1230     251.681E-03     255.416E-03
             683            1230     251.681E-03     255.416E-03
             678            1230     251.681E-03     255.416E-03
             683            1231     183.231E-03     189.885E-03
             684            1231     183.231E-03     189.885E-03
             678            1231     183.231E-03     189.885E-03
             679            1231     183.231E-03     189.885E-03
             680            1232     96.2723E-03     109.941E-03
             685            1232     96.2723E-03     109.941E-03
             679            1232     96.2723E-03     109.941E-03
             684            1232     96.2723E-03     109.941E-03
             681            1233     306.783E-03     305.662E-03
             687            1233     306.783E-03     305.662E-03
             686            1233     306.783E-03     305.662E-03
             682            1233     306.783E-03     305.662E-03
             682            1234     260.353E-03     265.271E-03
             688            1234     260.353E-03     265.271E-03
             683            1234     260.353E-03     265.271E-03
             687            1234     260.353E-03     265.271E-03
             688            1235     193.875E-03     199.280E-03
             683            1235     193.875E-03     199.280E-03
             684            1235     193.875E-03     199.280E-03
             689            1235     193.875E-03     199.280E-03
             690            1236     113.815E-03     117.833E-03
             684            1236     113.815E-03     117.833E-03
             689            1236     113.815E-03     117.833E-03
             685            1236     113.815E-03     117.833E-03
             686            1237     310.027E-03     308.917E-03
             687            1237     310.027E-03     308.917E-03
             691            1237     310.027E-03     308.917E-03
             692            1237     310.027E-03     308.917E-03
             688            1238     274.573E-03     273.119E-03
             687            1238     274.573E-03     273.119E-03
             692            1238     274.573E-03     273.119E-03
             693            1238     274.573E-03     273.119E-03
             688            1239     221.047E-03     213.014E-03
             693            1239     221.047E-03     213.014E-03
             689            1239     221.047E-03     213.014E-03
             694            1239     221.047E-03     213.014E-03
             689            1240     173.358E-03     160.486E-03
             695            1240     173.358E-03     160.486E-03
             690            1240     173.358E-03     160.486E-03
             694            1240     173.358E-03     160.486E-03
             696            1241     312.166E-03     315.815E-03
             692            1241     312.166E-03     315.815E-03
             697            1241     312.166E-03     315.815E-03
             691            1241     312.166E-03     315.815E-03
             692            1242     284.404E-03     293.588E-03
             697            1242     284.404E-03     293.588E-03
             693            1242     284.404E-03     293.588E-03
             698            1242     284.404E-03     293.588E-03
             694            1243     242.586E-03     262.603E-03
             698            1243     242.586E-03     262.603E-03
             699            1243     242.586E-03     262.603E-03
             693            1243     242.586E-03     262.603E-03
             694            1244     218.142E-03     242.020E-03
             699            1244     218.142E-03     242.020E-03
             695            1244     218.142E-03     242.020E-03
             700            1244     218.142E-03     242.020E-03
             696            1245     325.724E-03     321.624E-03
             697            1245     325.724E-03     321.624E-03
             702            1245     325.724E-03     321.624E-03
             701            1245     325.724E-03     321.624E-03
             698            1246     320.332E-03     305.239E-03
             697            1246     320.332E-03     305.239E-03
             702            1246     320.332E-03     305.239E-03
             703            1246     320.332E-03     305.239E-03
             698            1247     311.324E-03     294.408E-03
             703            1247     311.324E-03     294.408E-03
             704            1247     311.324E-03     294.408E-03
             699            1247     311.324E-03     294.408E-03
             705            1248     315.524E-03     300.614E-03
             699            1248     315.524E-03     300.614E-03
             700            1248     315.524E-03     300.614E-03
             704            1248     315.524E-03     300.614E-03
             702            1249     329.082E-03     320.221E-03
             701            1249     329.082E-03     320.221E-03
             706            1249     329.082E-03     320.221E-03
             707            1249     329.082E-03     320.221E-03
             708            1250     332.713E-03     321.241E-03
             703            1250     332.713E-03     321.241E-03
             707            1250     332.713E-03     321.241E-03
             702            1250     332.713E-03     321.241E-03
             703            1251     337.963E-03     333.744E-03
             708            1251     337.963E-03     333.744E-03
             709            1251     337.963E-03     333.744E-03
             704            1251     337.963E-03     333.744E-03
             704            1252     374.401E-03     374.620E-03
             709            1252     374.401E-03     374.620E-03
             710            1252     374.401E-03     374.620E-03
             705            1252     374.401E-03     374.620E-03
             711            1253     319.068E-03     320.865E-03
             707            1253     319.068E-03     320.865E-03
             712            1253     319.068E-03     320.865E-03
             706            1253     319.068E-03     320.865E-03
             712            1254     309.811E-03     333.210E-03
             707            1254     309.811E-03     333.210E-03
             708            1254     309.811E-03     333.210E-03
             713            1254     309.811E-03     333.210E-03
             714            1255     307.842E-03     361.866E-03
             713            1255     307.842E-03     361.866E-03
             709            1255     307.842E-03     361.866E-03
             708            1255     307.842E-03     361.866E-03
             709            1256     326.473E-03     378.587E-03
             715            1256     326.473E-03     378.587E-03
             710            1256     326.473E-03     378.587E-03
             714            1256     326.473E-03     378.587E-03
             717            1257     326.452E-03     324.891E-03
             716            1257     326.452E-03     324.891E-03
             711            1257     326.452E-03     324.891E-03
             712            1257     326.452E-03     324.891E-03
             712            1258     330.989E-03     332.241E-03
             718            1258     330.989E-03     332.241E-03
             717            1258     330.989E-03     332.241E-03
             713            1258     330.989E-03     332.241E-03
             718            1259     346.588E-03     350.715E-03
             713            1259     346.588E-03     350.715E-03
             719            1259     346.588E-03     350.715E-03
             714            1259     346.588E-03     350.715E-03
             715            1260     335.375E-03     330.715E-03
             720            1260     335.375E-03     330.715E-03
             719            1260     335.375E-03     330.715E-03
             714            1260     335.375E-03     330.715E-03
             717            1261     337.450E-03     332.218E-03
             716            1261     337.450E-03     332.218E-03
             722            1261     337.450E-03     332.218E-03
             721            1261     337.450E-03     332.218E-03
             723            1262     358.844E-03     353.391E-03
             717            1262     358.844E-03     353.391E-03
             722            1262     358.844E-03     353.391E-03
             718            1262     358.844E-03     353.391E-03
             718            1263     379.839E-03     372.219E-03
             724            1263     379.839E-03     372.219E-03
             723            1263     379.839E-03     372.219E-03
             719            1263     379.839E-03     372.219E-03
             720            1264     386.844E-03     373.423E-03
             725            1264     386.844E-03     373.423E-03
             724            1264     386.844E-03     373.423E-03
             719            1264     386.844E-03     373.423E-03
             721            1265     340.633E-03     348.976E-03
             722            1265     340.633E-03     348.976E-03
             726            1265     340.633E-03     348.976E-03
             727            1265     340.633E-03     348.976E-03
             722            1266     368.968E-03     390.568E-03
             727            1266     368.968E-03     390.568E-03
             723            1266     368.968E-03     390.568E-03
             728            1266     368.968E-03     390.568E-03
             723            1267     389.356E-03     431.964E-03
             724            1267     389.356E-03     431.964E-03
             728            1267     389.356E-03     431.964E-03
             729            1267     389.356E-03     431.964E-03
             725            1268     419.215E-03     461.337E-03
             724            1268     419.215E-03     461.337E-03
             730            1268     419.215E-03     461.337E-03
             729            1268     419.215E-03     461.337E-03
             727            1269     362.450E-03     357.349E-03
             726            1269     362.450E-03     357.349E-03
             731            1269     362.450E-03     357.349E-03
             732            1269     362.450E-03     357.349E-03
             732            1270     429.035E-03     401.946E-03
             728            1270     429.035E-03     401.946E-03
             727            1270     429.035E-03     401.946E-03
             733            1270     429.035E-03     401.946E-03
             728            1271     490.239E-03     459.595E-03
             734            1271     490.239E-03     459.595E-03
             733            1271     490.239E-03     459.595E-03
             729            1271     490.239E-03     459.595E-03
             729            1272     541.679E-03     517.752E-03
             735            1272     541.679E-03     517.752E-03
             734            1272     541.679E-03     517.752E-03
             730            1272     541.679E-03     517.752E-03
             732            1273     364.991E-03     353.022E-03
             736            1273     364.991E-03     353.022E-03
             731            1273     364.991E-03     353.022E-03
             737            1273     364.991E-03     353.022E-03
             737            1274     441.428E-03     422.032E-03
             732            1274     441.428E-03     422.032E-03
             738            1274     441.428E-03     422.032E-03
             733            1274     441.428E-03     422.032E-03
             734            1275     517.778E-03     509.349E-03
             739            1275     517.778E-03     509.349E-03
             733            1275     517.778E-03     509.349E-03
             738            1275     517.778E-03     509.349E-03
             734            1276     604.685E-03     602.394E-03
             740            1276     604.685E-03     602.394E-03
             735            1276     604.685E-03     602.394E-03
             739            1276     604.685E-03     602.394E-03
             737            1277     347.780E-03     356.596E-03
             736            1277     347.780E-03     356.596E-03
             741            1277     347.780E-03     356.596E-03
             742            1277     347.780E-03     356.596E-03
             743            1278     398.951E-03     446.354E-03
             738            1278     398.951E-03     446.354E-03
             737            1278     398.951E-03     446.354E-03
             742            1278     398.951E-03     446.354E-03
             738            1279     465.472E-03     564.485E-03
             743            1279     465.472E-03     564.485E-03
             744            1279     465.472E-03     564.485E-03
             739            1279     465.472E-03     564.485E-03
             739            1280     540.749E-03     634.987E-03
             744            1280     540.749E-03     634.987E-03
             740            1280     540.749E-03     634.987E-03
             745            1280     540.749E-03     634.987E-03
             742            1281     363.704E-03     360.575E-03
             746            1281     363.704E-03     360.575E-03
             741            1281     363.704E-03     360.575E-03
             747            1281     363.704E-03     360.575E-03
             742            1282     437.713E-03     438.946E-03
             748            1282     437.713E-03     438.946E-03
             747            1282     437.713E-03     438.946E-03
             743            1282     437.713E-03     438.946E-03
             749            1283     533.443E-03     536.687E-03
             748            1283     533.443E-03     536.687E-03
             744            1283     533.443E-03     536.687E-03
             743            1283     533.443E-03     536.687E-03
             749            1284     579.429E-03     564.648E-03
             744            1284     579.429E-03     564.648E-03
             750            1284     579.429E-03     564.648E-03
             745            1284     579.429E-03     564.648E-03
             752            1285     381.623E-03     376.370E-03
             747            1285     381.623E-03     376.370E-03
             746            1285     381.623E-03     376.370E-03
             751            1285     381.623E-03     376.370E-03
             748            1286     476.156E-03     472.529E-03
             752            1286     476.156E-03     472.529E-03
             753            1286     476.156E-03     472.529E-03
             747            1286     476.156E-03     472.529E-03
             754            1287     564.779E-03     567.963E-03
             748            1287     564.779E-03     567.963E-03
             753            1287     564.779E-03     567.963E-03
             749            1287     564.779E-03     567.963E-03
             755            1288     612.955E-03     616.143E-03
             749            1288     612.955E-03     616.143E-03
             750            1288     612.955E-03     616.143E-03
             754            1288     612.955E-03     616.143E-03
             751            1289     395.729E-03     392.632E-03
             757            1289     395.729E-03     392.632E-03
             752            1289     395.729E-03     392.632E-03
             756            1289     395.729E-03     392.632E-03
             753            1290     495.471E-03     495.772E-03
             758            1290     495.471E-03     495.772E-03
             752            1290     495.471E-03     495.772E-03
             757            1290     495.471E-03     495.772E-03
             759            1291     583.245E-03     593.855E-03
             754            1291     583.245E-03     593.855E-03
             753            1291     583.245E-03     593.855E-03
             758            1291     583.245E-03     593.855E-03
             754            1292     657.732E-03     666.165E-03
             755            1292     657.732E-03     666.165E-03
             760            1292     657.732E-03     666.165E-03
             759            1292     657.732E-03     666.165E-03
             756            1293     400.121E-03     411.508E-03
             762            1293     400.121E-03     411.508E-03
             757            1293     400.121E-03     411.508E-03
             761            1293     400.121E-03     411.508E-03
             758            1294     516.061E-03     535.712E-03
             762            1294     516.061E-03     535.712E-03
             763            1294     516.061E-03     535.712E-03
             757            1294     516.061E-03     535.712E-03
             758            1295     614.095E-03     661.388E-03
             759            1295     614.095E-03     661.388E-03
             763            1295     614.095E-03     661.388E-03
             764            1295     614.095E-03     661.388E-03
             760            1296     706.401E-03     754.493E-03
             764            1296     706.401E-03     754.493E-03
             765            1296     706.401E-03     754.493E-03
             759            1296     706.401E-03     754.493E-03
             766            1297     430.098E-03     421.459E-03
             762            1297     430.098E-03     421.459E-03
             767            1297     430.098E-03     421.459E-03
             761            1297     430.098E-03     421.459E-03
             768            1298     594.412E-03     555.221E-03
             763            1298     594.412E-03     555.221E-03
             767            1298     594.412E-03     555.221E-03
             762            1298     594.412E-03     555.221E-03
             769            1299     735.658E-03     703.227E-03
             768            1299     735.658E-03     703.227E-03
             763            1299     735.658E-03     703.227E-03
             764            1299     735.658E-03     703.227E-03
             769            1300     840.542E-03     818.725E-03
             765            1300     840.542E-03     818.725E-03
             764            1300     840.542E-03     818.725E-03
             770            1300     840.542E-03     818.725E-03
             767            1301     428.363E-03     411.233E-03
             772            1301     428.363E-03     411.233E-03
             771            1301     428.363E-03     411.233E-03
             766            1301     428.363E-03     411.233E-03
             772            1302     602.822E-03     575.308E-03
             767            1302     602.822E-03     575.308E-03
             768            1302     602.822E-03     575.308E-03
             773            1302     602.822E-03     575.308E-03
             769            1303     767.824E-03     755.040E-03
             773            1303     767.824E-03     755.040E-03
             768            1303     767.824E-03     755.040E-03
             774            1303     767.824E-03     755.040E-03
             770            1304     912.024E-03     903.015E-03
             775            1304     912.024E-03     903.015E-03
             774            1304     912.024E-03     903.015E-03
             769            1304     912.024E-03     903.015E-03
             772            1305     396.264E-03     415.939E-03
             777            1305     396.264E-03     415.939E-03
             771            1305     396.264E-03     415.939E-03
             776            1305     396.264E-03     415.939E-03
             772            1306     528.887E-03     609.243E-03
             778            1306     528.887E-03     609.243E-03
             773            1306     528.887E-03     609.243E-03
             777            1306     528.887E-03     609.243E-03
             779            1307     675.390E-03     830.552E-03
             774            1307     675.390E-03     830.552E-03
             773            1307     675.390E-03     830.552E-03
             778            1307     675.390E-03     830.552E-03
             780            1308     811.660E-03     955.570E-03
             779            1308     811.660E-03     955.570E-03
             774            1308     811.660E-03     955.570E-03
             775            1308     811.660E-03     955.570E-03
             776            1309     423.425E-03     418.064E-03
             781            1309     423.425E-03     418.064E-03
             782            1309     423.425E-03     418.064E-03
             777            1309     423.425E-03     418.064E-03
             783            1310     590.716E-03     586.990E-03
             782            1310     590.716E-03     586.990E-03
             778            1310     590.716E-03     586.990E-03
             777            1310     590.716E-03     586.990E-03
             783            1311     771.338E-03     772.051E-03
             779            1311     771.338E-03     772.051E-03
             778            1311     771.338E-03     772.051E-03
             784            1311     771.338E-03     772.051E-03
             780            1312     871.246E-03     851.528E-03
             779            1312     871.246E-03     851.528E-03
             785            1312     871.246E-03     851.528E-03
             784            1312     871.246E-03     851.528E-03
             786            1313     449.850E-03     439.823E-03
             782            1313     449.850E-03     439.823E-03
             787            1313     449.850E-03     439.823E-03
             781            1313     449.850E-03     439.823E-03
             788            1314     639.702E-03     626.067E-03
             783            1314     639.702E-03     626.067E-03
             782            1314     639.702E-03     626.067E-03
             787            1314     639.702E-03     626.067E-03
             783            1315     804.492E-03     800.687E-03
             789            1315     804.492E-03     800.687E-03
             784            1315     804.492E-03     800.687E-03
             788            1315     804.492E-03     800.687E-03
             790            1316     898.658E-03     898.193E-03
             789            1316     898.658E-03     898.193E-03
             785            1316     898.658E-03     898.193E-03
             784            1316     898.658E-03     898.193E-03
             792            1317     463.967E-03     461.495E-03
             786            1317     463.967E-03     461.495E-03
             791            1317     463.967E-03     461.495E-03
             787            1317     463.967E-03     461.495E-03
             788            1318     648.860E-03     652.653E-03
             787            1318     648.860E-03     652.653E-03
             792            1318     648.860E-03     652.653E-03
             793            1318     648.860E-03     652.653E-03
             788            1319     802.602E-03     825.339E-03
             794            1319     802.602E-03     825.339E-03
             793            1319     802.602E-03     825.339E-03
             789            1319     802.602E-03     825.339E-03
             789            1320     926.217E-03     946.513E-03
             794            1320     926.217E-03     946.513E-03
             795            1320     926.217E-03     946.513E-03
             790            1320     926.217E-03     946.513E-03
             791            1321     468.024E-03     483.432E-03
             797            1321     468.024E-03     483.432E-03
             796            1321     468.024E-03     483.432E-03
             792            1321     468.024E-03     483.432E-03
             792            1322     670.995E-03     694.991E-03
             797            1322     670.995E-03     694.991E-03
             793            1322     670.995E-03     694.991E-03
             798            1322     670.995E-03     694.991E-03
             798            1323     834.157E-03     894.102E-03
             799            1323     834.157E-03     894.102E-03
             794            1323     834.157E-03     894.102E-03
             793            1323     834.157E-03     894.102E-03
             799            1324     975.072E-03         1.03511
             795            1324     975.072E-03         1.03511
             794            1324     975.072E-03         1.03511
             800            1324     975.072E-03         1.03511
             796            1325     503.657E-03     492.664E-03
             801            1325     503.657E-03     492.664E-03
             797            1325     503.657E-03     492.664E-03
             802            1325     503.657E-03     492.664E-03
             798            1326     765.214E-03     714.804E-03
             797            1326     765.214E-03     714.804E-03
             802            1326     765.214E-03     714.804E-03
             803            1326     765.214E-03     714.804E-03
             804            1327     978.459E-03     938.758E-03
             799            1327     978.459E-03     938.758E-03
             803            1327     978.459E-03     938.758E-03
             798            1327     978.459E-03     938.758E-03
             805            1328         1.12717         1.10162
             804            1328         1.12717         1.10162
             799            1328         1.12717         1.10162
             800            1328         1.12717         1.10162
             802            1329     496.503E-03     475.428E-03
             801            1329     496.503E-03     475.428E-03
             806            1329     496.503E-03     475.428E-03
             807            1329     496.503E-03     475.428E-03
             802            1330     767.037E-03     732.932E-03
             803            1330     767.037E-03     732.932E-03
             808            1330     767.037E-03     732.932E-03
             807            1330     767.037E-03     732.932E-03
             809            1331         1.01086     995.014E-03
             808            1331         1.01086     995.014E-03
             803            1331         1.01086     995.014E-03
             804            1331         1.01086     995.014E-03
             804            1332         1.20538         1.19151
             810            1332         1.20538         1.19151
             809            1332         1.20538         1.19151
             805            1332         1.20538         1.19151
             811            1333     452.301E-03     484.808E-03
             812            1333     452.301E-03     484.808E-03
             806            1333     452.301E-03     484.808E-03
             807            1333     452.301E-03     484.808E-03
             812            1334     665.515E-03     778.144E-03
             813            1334     665.515E-03     778.144E-03
             807            1334     665.515E-03     778.144E-03
             808            1334     665.515E-03     778.144E-03
             808            1335     880.584E-03         1.08851
             809            1335     880.584E-03         1.08851
             813            1335     880.584E-03         1.08851
             814            1335     880.584E-03         1.08851
             815            1336         1.07474         1.26385
             809            1336         1.07474         1.26385
             810            1336         1.07474         1.26385
             814            1336         1.07474         1.26385
             817            1337     496.919E-03     490.978E-03
             812            1337     496.919E-03     490.978E-03
             816            1337     496.919E-03     490.978E-03
             811            1337     496.919E-03     490.978E-03
             817            1338     760.574E-03     746.477E-03
             818            1338     760.574E-03     746.477E-03
             812            1338     760.574E-03     746.477E-03
             813            1338     760.574E-03     746.477E-03
             814            1339         1.01456         1.01183
             819            1339         1.01456         1.01183
             818            1339         1.01456         1.01183
             813            1339         1.01456         1.01183
             819            1340         1.15757         1.14476
             815            1340         1.15757         1.14476
             814            1340         1.15757         1.14476
             820            1340         1.15757         1.14476
             821            1341     530.888E-03     510.681E-03
             817            1341     530.888E-03     510.681E-03
             822            1341     530.888E-03     510.681E-03
             816            1341     530.888E-03     510.681E-03
             817            1342     819.404E-03     776.230E-03
             818            1342     819.404E-03     776.230E-03
             822            1342     819.404E-03     776.230E-03
             823            1342     819.404E-03     776.230E-03
             819            1343         1.06089         1.01322
             823            1343         1.06089         1.01322
             824            1343         1.06089         1.01322
             818            1343         1.06089         1.01322
             819            1344         1.20453         1.15711
             824            1344         1.20453         1.15711
             820            1344         1.20453         1.15711
             825            1344         1.20453         1.15711
             821            1345     521.021E-03     554.045E-03
             822            1345     521.021E-03     554.045E-03
             826            1345     521.021E-03     554.045E-03
             827            1345     521.021E-03     554.045E-03
             823            1346     785.603E-03     854.040E-03
             828            1346     785.603E-03     854.040E-03
             827            1346     785.603E-03     854.040E-03
             822            1346     785.603E-03     854.040E-03
             823            1347     985.127E-03         1.11390
             829            1347     985.127E-03         1.11390
             828            1347     985.127E-03         1.11390
             824            1347     985.127E-03         1.11390
             824            1348         1.15490         1.27952
             830            1348         1.15490         1.27952
             825            1348         1.15490         1.27952
             829            1348         1.15490         1.27952
             826            1349     565.965E-03     553.325E-03
             832            1349     565.965E-03     553.325E-03
             831            1349     565.965E-03     553.325E-03
             827            1349     565.965E-03     553.325E-03
             827            1350     907.143E-03     840.090E-03
             832            1350     907.143E-03     840.090E-03
             833            1350     907.143E-03     840.090E-03
             828            1350     907.143E-03     840.090E-03
             829            1351         1.17981         1.10832
             828            1351         1.17981         1.10832
             833            1351         1.17981         1.10832
             834            1351         1.17981         1.10832
             829            1352         1.36171         1.30397
             834            1352         1.36171         1.30397
             835            1352         1.36171         1.30397
             830            1352         1.36171         1.30397
             831            1353     555.425E-03     532.542E-03
             832            1353     555.425E-03     532.542E-03
             837            1353     555.425E-03     532.542E-03
             836            1353     555.425E-03     532.542E-03
             837            1354     902.158E-03     861.994E-03
             838            1354     902.158E-03     861.994E-03
             833            1354     902.158E-03     861.994E-03
             832            1354     902.158E-03     861.994E-03
             838            1355         1.20216         1.18472
             839            1355         1.20216         1.18472
             834            1355         1.20216         1.18472
             833            1355         1.20216         1.18472
             840            1356         1.43171         1.42173
             835            1356         1.43171         1.42173
             839            1356         1.43171         1.42173
             834            1356         1.43171         1.42173
            1618            2006     9.41722E-15     10.7601E-15
            1623            2006     9.41722E-15     10.7601E-15
            1624            2006     9.41722E-15     10.7601E-15
            1619            2006     9.41722E-15     10.7601E-15
            1620            2007     7.49021E-15     7.61208E-15
            1619            2007     7.49021E-15     7.61208E-15
            1624            2007     7.49021E-15     7.61208E-15
            1625            2007     7.49021E-15     7.61208E-15
            1621            2008     8.78138E-15     8.93245E-15
            1625            2008     8.78138E-15     8.93245E-15
            1626            2008     8.78138E-15     8.93245E-15
            1620            2008     8.78138E-15     8.93245E-15
            1626            2009     9.49893E-15     11.6339E-15
            1621            2009     9.49893E-15     11.6339E-15
            1627            2009     9.49893E-15     11.6339E-15
            1622            2009     9.49893E-15     11.6339E-15
            1623            2010     9.24991E-15     10.3304E-15
            1628            2010     9.24991E-15     10.3304E-15
            1629            2010     9.24991E-15     10.3304E-15
            1624            2010     9.24991E-15     10.3304E-15
            1624            2011     7.09724E-15     7.00758E-15
            1630            2011     7.09724E-15     7.00758E-15
            1625            2011     7.09724E-15     7.00758E-15
            1629            2011     7.09724E-15     7.00758E-15
            1630            2012     12.3686E-15     12.1805E-15
            1631            2012     12.3686E-15     12.1805E-15
            1625            2012     12.3686E-15     12.1805E-15
            1626            2012     12.3686E-15     12.1805E-15
            1631            2013     11.4684E-15     13.0015E-15
            1632            2013     11.4684E-15     13.0015E-15
            1627            2013     11.4684E-15     13.0015E-15
            1626            2013     11.4684E-15     13.0015E-15
            1628            2014     12.1619E-15     11.6522E-15
            1633            2014     12.1619E-15     11.6522E-15
            1634            2014     12.1619E-15     11.6522E-15
            1629            2014     12.1619E-15     11.6522E-15
            1629            2015     11.9456E-15     11.4213E-15
            1635            2015     11.9456E-15     11.4213E-15
            1630            2015     11.9456E-15     11.4213E-15
            1634            2015     11.9456E-15     11.4213E-15
            1635            2016     13.9558E-15     12.4316E-15
            1636            2016     13.9558E-15     12.4316E-15
            1630            2016     13.9558E-15     12.4316E-15
            1631            2016     13.9558E-15     12.4316E-15
            1636            2017     14.5378E-15     13.9954E-15
            1637            2017     14.5378E-15     13.9954E-15
            1632            2017     14.5378E-15     13.9954E-15
            1631            2017     14.5378E-15     13.9954E-15
            1634            2018     13.8617E-15     12.1543E-15
            1638            2018     13.8617E-15     12.1543E-15
            1633            2018     13.8617E-15     12.1543E-15
            1639            2018     13.8617E-15     12.1543E-15
            1640            2019     13.3379E-15     12.1930E-15
            1634            2019     13.3379E-15     12.1930E-15
            1635            2019     13.3379E-15     12.1930E-15
            1639            2019     13.3379E-15     12.1930E-15
            1635            2020     9.19650E-15     7.95053E-15
            1640            2020     9.19650E-15     7.95053E-15
            1636            2020     9.19650E-15     7.95053E-15
            1641            2020     9.19650E-15     7.95053E-15
            1642            2021     9.84267E-15     10.0569E-15
            1636            2021     9.84267E-15     10.0569E-15
            1637            2021     9.84267E-15     10.0569E-15
            1641            2021     9.84267E-15     10.0569E-15
            1643            2022     15.2101E-15     14.4801E-15
            1639            2022     15.2101E-15     14.4801E-15
            1644            2022     15.2101E-15     14.4801E-15
            1638            2022     15.2101E-15     14.4801E-15
            1639            2023     16.4783E-15     16.2794E-15
            1645            2023     16.4783E-15     16.2794E-15
            1640            2023     16.4783E-15     16.2794E-15
            1644            2023     16.4783E-15     16.2794E-15
            1640            2024     11.4272E-15     10.6698E-15
            1641            2024     11.4272E-15     10.6698E-15
            1645            2024     11.4272E-15     10.6698E-15
            1646            2024     11.4272E-15     10.6698E-15
            1641            2025     8.70820E-15     8.66827E-15
            1647            2025     8.70820E-15     8.66827E-15
            1646            2025     8.70820E-15     8.66827E-15
            1642            2025     8.70820E-15     8.66827E-15
            1654            2026         1.30014         1.36998
            1648            2026         1.30014         1.36998
            1653            2026         1.30014         1.36998
            1649            2026         1.30014         1.36998
            1650            2027         1.10331         1.18235
            1654            2027         1.10331         1.18235
            1649            2027         1.10331         1.18235
            1655            2027         1.10331         1.18235
            1655            2028     817.810E-03     864.495E-03
            1651            2028     817.810E-03     864.495E-03
            1656            2028     817.810E-03     864.495E-03
            1650            2028     817.810E-03     864.495E-03
            1652            2029     504.527E-03     524.961E-03
            1657            2029     504.527E-03     524.961E-03
            1651            2029     504.527E-03     524.961E-03
            1656            2029     504.527E-03     524.961E-03
            1653            2030         1.39945         1.44158
            1654            2030         1.39945         1.44158
            1659            2030         1.39945         1.44158
            1658            2030         1.39945         1.44158
            1659            2031         1.21370         1.26415
            1660            2031         1.21370         1.26415
            1654            2031         1.21370         1.26415
            1655            2031         1.21370         1.26415
            1655            2032     913.125E-03     934.121E-03
            1656            2032     913.125E-03     934.121E-03
            1661            2032     913.125E-03     934.121E-03
            1660            2032     913.125E-03     934.121E-03
            1661            2033     563.170E-03     584.099E-03
            1656            2033     563.170E-03     584.099E-03
            1662            2033     563.170E-03     584.099E-03
            1657            2033     563.170E-03     584.099E-03
            1663            2034         1.57098         1.46814
            1658            2034         1.57098         1.46814
            1659            2034         1.57098         1.46814
            1664            2034         1.57098         1.46814
            1659            2035         1.38881         1.27888
            1660            2035         1.38881         1.27888
            1664            2035         1.38881         1.27888
            1665            2035         1.38881         1.27888
            1660            2036         1.05460     967.264E-03
            1661            2036         1.05460     967.264E-03
            1666            2036         1.05460     967.264E-03
            1665            2036         1.05460     967.264E-03
            1662            2037     625.187E-03     603.712E-03
            1661            2037     625.187E-03     603.712E-03
            1666            2037     625.187E-03     603.712E-03
            1667            2037     625.187E-03     603.712E-03
            1668            2038         1.56411         1.59493
            1664            2038         1.56411         1.59493
            1669            2038         1.56411         1.59493
            1663            2038         1.56411         1.59493
            1669            2039         1.31773         1.34036
            1670            2039         1.31773         1.34036
            1664            2039         1.31773         1.34036
            1665            2039         1.31773         1.34036
            1666            2040     993.582E-03     986.986E-03
            1670            2040     993.582E-03     986.986E-03
            1665            2040     993.582E-03     986.986E-03
            1671            2040     993.582E-03     986.986E-03
            1667            2041     601.829E-03     595.076E-03
            1666            2041     601.829E-03     595.076E-03
            1671            2041     601.829E-03     595.076E-03
            1672            2041     601.829E-03     595.076E-03
            1833            2162     866.466E-03     867.984E-03
            1838            2162     866.466E-03     867.984E-03
            1834            2162     866.466E-03     867.984E-03
            1839            2162     866.466E-03     867.984E-03
            1839            2163         1.06354         1.07535
            1834            2163         1.06354         1.07535
            1840            2163         1.06354         1.07535
            1835            2163         1.06354         1.07535
            1840            2164         1.27105         1.29157
            1835            2164         1.27105         1.29157
            1836            2164         1.27105         1.29157
            1841            2164         1.27105         1.29157
            1841            2165         1.41313         1.43918
            1842            2165         1.41313         1.43918
            1837            2165         1.41313         1.43918
            1836            2165         1.41313         1.43918
            1843            2166     893.386E-03     893.930E-03
            1839            2166     893.386E-03     893.930E-03
            1844            2166     893.386E-03     893.930E-03
            1838            2166     893.386E-03     893.930E-03
            1840            2167         1.03041         1.06293
            1845            2167         1.03041         1.06293
            1844            2167         1.03041         1.06293
            1839            2167         1.03041         1.06293
            1841            2168         1.17536         1.25716
            1845            2168         1.17536         1.25716
            1840            2168         1.17536         1.25716
            1846            2168         1.17536         1.25716
            1846            2169         1.31371         1.40820
            1847            2169         1.31371         1.40820
            1842            2169         1.31371         1.40820
            1841            2169         1.31371         1.40820
            1849            2170     857.455E-03     835.644E-03
            1848            2170     857.455E-03     835.644E-03
            1844            2170     857.455E-03     835.644E-03
            1843            2170     857.455E-03     835.644E-03
            1850            2171         1.02484     991.517E-03
            1849            2171         1.02484     991.517E-03
            1844            2171         1.02484     991.517E-03
            1845            2171         1.02484     991.517E-03
            1850            2172         1.18378         1.15868
            1845            2172         1.18378         1.15868
            1846            2172         1.18378         1.15868
            1851            2172         1.18378         1.15868
            1851            2173         1.32651         1.31955
            1852            2173         1.32651         1.31955
            1846            2173         1.32651         1.31955
            1847            2173         1.32651         1.31955
            1849            2174     843.582E-03     831.883E-03
            1853            2174     843.582E-03     831.883E-03
            1854            2174     843.582E-03     831.883E-03
            1848            2174     843.582E-03     831.883E-03
            1849            2175     989.401E-03     937.832E-03
            1855            2175     989.401E-03     937.832E-03
            1854            2175     989.401E-03     937.832E-03
            1850            2175     989.401E-03     937.832E-03
            1851            2176         1.14501         1.07112
            1850            2176         1.14501         1.07112
            1856            2176         1.14501         1.07112
            1855            2176         1.14501         1.07112
            1851            2177         1.20328         1.10740
            1856            2177         1.20328         1.10740
            1857            2177         1.20328         1.10740
            1852            2177         1.20328         1.10740
            1858            2178     98.5363E-03     105.813E-03
            1863            2178     98.5363E-03     105.813E-03
            1859            2178     98.5363E-03     105.813E-03
            1864            2178     98.5363E-03     105.813E-03
            1860            2179     159.253E-03     160.499E-03
            1864            2179     159.253E-03     160.499E-03
            1859            2179     159.253E-03     160.499E-03
            1865            2179     159.253E-03     160.499E-03
            1865            2180     210.457E-03     210.787E-03
            1866            2180     210.457E-03     210.787E-03
            1860            2180     210.457E-03     210.787E-03
            1861            2180     210.457E-03     210.787E-03
            1867            2181     247.914E-03     246.528E-03
            1866            2181     247.914E-03     246.528E-03
            1862            2181     247.914E-03     246.528E-03
            1861            2181     247.914E-03     246.528E-03
            1868            2182     96.2723E-03     109.941E-03
            1869            2182     96.2723E-03     109.941E-03
            1863            2182     96.2723E-03     109.941E-03
            1864            2182     96.2723E-03     109.941E-03
            1870            2183     183.231E-03     189.885E-03
            1864            2183     183.231E-03     189.885E-03
            1869            2183     183.231E-03     189.885E-03
            1865            2183     183.231E-03     189.885E-03
            1865            2184     251.681E-03     255.416E-03
            1870            2184     251.681E-03     255.416E-03
            1866            2184     251.681E-03     255.416E-03
            1871            2184     251.681E-03     255.416E-03
            1867            2185     304.933E-03     301.565E-03
            1871            2185     304.933E-03     301.565E-03
            1872            2185     304.933E-03     301.565E-03
            1866            2185     304.933E-03     301.565E-03
            1869            2186     113.815E-03     117.833E-03
            1874            2186     113.815E-03     117.833E-03
            1868            2186     113.815E-03     117.833E-03
            1873            2186     113.815E-03     117.833E-03
            1870            2187     193.875E-03     199.280E-03
            1875            2187     193.875E-03     199.280E-03
            1874            2187     193.875E-03     199.280E-03
            1869            2187     193.875E-03     199.280E-03
            1876            2188     260.353E-03     265.271E-03
            1870            2188     260.353E-03     265.271E-03
            1871            2188     260.353E-03     265.271E-03
            1875            2188     260.353E-03     265.271E-03
            1877            2189     306.783E-03     305.662E-03
            1871            2189     306.783E-03     305.662E-03
            1876            2189     306.783E-03     305.662E-03
            1872            2189     306.783E-03     305.662E-03
            1874            2190     173.358E-03     160.486E-03
            1873            2190     173.358E-03     160.486E-03
            1879            2190     173.358E-03     160.486E-03
            1878            2190     173.358E-03     160.486E-03
            1879            2191     221.047E-03     213.014E-03
            1875            2191     221.047E-03     213.014E-03
            1880            2191     221.047E-03     213.014E-03
            1874            2191     221.047E-03     213.014E-03
            1881            2192     274.573E-03     273.119E-03
            1880            2192     274.573E-03     273.119E-03
            1875            2192     274.573E-03     273.119E-03
            1876            2192     274.573E-03     273.119E-03
            1882            2193     310.027E-03     308.917E-03
            1877            2193     310.027E-03     308.917E-03
            1876            2193     310.027E-03     308.917E-03
            1881            2193     310.027E-03     308.917E-03
            1883            2194     218.142E-03     242.020E-03
            1879            2194     218.142E-03     242.020E-03
            1884            2194     218.142E-03     242.020E-03
            1878            2194     218.142E-03     242.020E-03
            1879            2195     242.586E-03     262.603E-03
            1880            2195     242.586E-03     262.603E-03
            1884            2195     242.586E-03     262.603E-03
            1885            2195     242.586E-03     262.603E-03
            1886            2196     284.404E-03     293.588E-03
            1885            2196     284.404E-03     293.588E-03
            1880            2196     284.404E-03     293.588E-03
            1881            2196     284.404E-03     293.588E-03
            1887            2197     312.166E-03     315.815E-03
            1882            2197     312.166E-03     315.815E-03
            1881            2197     312.166E-03     315.815E-03
            1886            2197     312.166E-03     315.815E-03
            1884            2198     315.524E-03     300.614E-03
            1883            2198     315.524E-03     300.614E-03
            1888            2198     315.524E-03     300.614E-03
            1889            2198     315.524E-03     300.614E-03
            1890            2199     311.324E-03     294.408E-03
            1889            2199     311.324E-03     294.408E-03
            1884            2199     311.324E-03     294.408E-03
            1885            2199     311.324E-03     294.408E-03
            1891            2200     320.332E-03     305.239E-03
            1885            2200     320.332E-03     305.239E-03
            1886            2200     320.332E-03     305.239E-03
            1890            2200     320.332E-03     305.239E-03
            1887            2201     325.724E-03     321.624E-03
            1886            2201     325.724E-03     321.624E-03
            1891            2201     325.724E-03     321.624E-03
            1892            2201     325.724E-03     321.624E-03
            1889            2202     374.401E-03     374.620E-03
            1893            2202     374.401E-03     374.620E-03
            1888            2202     374.401E-03     374.620E-03
            1894            2202     374.401E-03     374.620E-03
            1889            2203     337.963E-03     333.744E-03
            1894            2203     337.963E-03     333.744E-03
            1895            2203     337.963E-03     333.744E-03
            1890            2203     337.963E-03     333.744E-03
            1890            2204     332.713E-03     321.241E-03
            1896            2204     332.713E-03     321.241E-03
            1891            2204     332.713E-03     321.241E-03
            1895            2204     332.713E-03     321.241E-03
            1897            2205     329.082E-03     320.221E-03
            1896            2205     329.082E-03     320.221E-03
            1892            2205     329.082E-03     320.221E-03
            1891            2205     329.082E-03     320.221E-03
            1899            2206     326.473E-03     378.587E-03
            1894            2206     326.473E-03     378.587E-03
            1893            2206     326.473E-03     378.587E-03
            1898            2206     326.473E-03     378.587E-03
            1900            2207     307.842E-03     361.866E-03
            1894            2207     307.842E-03     361.866E-03
            1899            2207     307.842E-03     361.866E-03
            1895            2207     307.842E-03     361.866E-03
            1896            2208     309.811E-03     333.210E-03
            1895            2208     309.811E-03     333.210E-03
            1901            2208     309.811E-03     333.210E-03
            1900            2208     309.811E-03     333.210E-03
            1901            2209     319.068E-03     320.865E-03
            1896            2209     319.068E-03     320.865E-03
            1897            2209     319.068E-03     320.865E-03
            1902            2209     319.068E-03     320.865E-03
            1904            2210     335.375E-03     330.715E-03
            1903            2210     335.375E-03     330.715E-03
            1898            2210     335.375E-03     330.715E-03
            1899            2210     335.375E-03     330.715E-03
            1904            2211     346.588E-03     350.715E-03
            1900            2211     346.588E-03     350.715E-03
            1899            2211     346.588E-03     350.715E-03
            1905            2211     346.588E-03     350.715E-03
            1906            2212     330.989E-03     332.241E-03
            1900            2212     330.989E-03     332.241E-03
            1905            2212     330.989E-03     332.241E-03
            1901            2212     330.989E-03     332.241E-03
            1902            2213     326.452E-03     324.891E-03
            1901            2213     326.452E-03     324.891E-03
            1906            2213     326.452E-03     324.891E-03
            1907            2213     326.452E-03     324.891E-03
            1903            2214     386.844E-03     373.423E-03
            1904            2214     386.844E-03     373.423E-03
            1908            2214     386.844E-03     373.423E-03
            1909            2214     386.844E-03     373.423E-03
            1904            2215     379.839E-03     372.219E-03
            1909            2215     379.839E-03     372.219E-03
            1910            2215     379.839E-03     372.219E-03
            1905            2215     379.839E-03     372.219E-03
            1910            2216     358.844E-03     353.391E-03
            1911            2216     358.844E-03     353.391E-03
            1906            2216     358.844E-03     353.391E-03
            1905            2216     358.844E-03     353.391E-03
            1912            2217     337.450E-03     332.218E-03
            1906            2217     337.450E-03     332.218E-03
            1907            2217     337.450E-03     332.218E-03
            1911            2217     337.450E-03     332.218E-03
            1914            2218     419.215E-03     461.337E-03
            1913            2218     419.215E-03     461.337E-03
            1909            2218     419.215E-03     461.337E-03
            1908            2218     419.215E-03     461.337E-03
            1915            2219     389.356E-03     431.964E-03
            1910            2219     389.356E-03     431.964E-03
            1914            2219     389.356E-03     431.964E-03
            1909            2219     389.356E-03     431.964E-03
            1916            2220     368.968E-03     390.568E-03
            1910            2220     368.968E-03     390.568E-03
            1915            2220     368.968E-03     390.568E-03
            1911            2220     368.968E-03     390.568E-03
            1911            2221     340.633E-03     348.976E-03
            1917            2221     340.633E-03     348.976E-03
            1916            2221     340.633E-03     348.976E-03
            1912            2221     340.633E-03     348.976E-03
            1914            2222     541.679E-03     517.752E-03
            1919            2222     541.679E-03     517.752E-03
            1918            2222     541.679E-03     517.752E-03
            1913            2222     541.679E-03     517.752E-03
            1920            2223     490.239E-03     459.595E-03
            1915            2223     490.239E-03     459.595E-03
            1914            2223     490.239E-03     459.595E-03
            1919            2223     490.239E-03     459.595E-03
            1920            2224     429.035E-03     401.946E-03
            1916            2224     429.035E-03     401.946E-03
            1915            2224     429.035E-03     401.946E-03
            1921            2224     429.035E-03     401.946E-03
            1916            2225     362.450E-03     357.349E-03
            1921            2225     362.450E-03     357.349E-03
            1922            2225     362.450E-03     357.349E-03
            1917            2225     362.450E-03     357.349E-03
            1919            2226     604.685E-03     602.394E-03
            1923            2226     604.685E-03     602.394E-03
            1924            2226     604.685E-03     602.394E-03
            1918            2226     604.685E-03     602.394E-03
            1919            2227     517.778E-03     509.349E-03
            1920            2227     517.778E-03     509.349E-03
            1925            2227     517.778E-03     509.349E-03
            1924            2227     517.778E-03     509.349E-03
            1920            2228     441.428E-03     422.032E-03
            1921            2228     441.428E-03     422.032E-03
            1926            2228     441.428E-03     422.032E-03
            1925            2228     441.428E-03     422.032E-03
            1921            2229     364.991E-03     353.022E-03
            1922            2229     364.991E-03     353.022E-03
            1927            2229     364.991E-03     353.022E-03
            1926            2229     364.991E-03     353.022E-03
            1924            2230     540.749E-03     634.987E-03
            1928            2230     540.749E-03     634.987E-03
            1923            2230     540.749E-03     634.987E-03
            1929            2230     540.749E-03     634.987E-03
            1929            2231     465.472E-03     564.485E-03
            1924            2231     465.472E-03     564.485E-03
            1930            2231     465.472E-03     564.485E-03
            1925            2231     465.472E-03     564.485E-03
            1931            2232     398.951E-03     446.354E-03
            1925            2232     398.951E-03     446.354E-03
            1926            2232     398.951E-03     446.354E-03
            1930            2232     398.951E-03     446.354E-03
            1932            2233     347.780E-03     356.596E-03
            1927            2233     347.780E-03     356.596E-03
            1931            2233     347.780E-03     356.596E-03
            1926            2233     347.780E-03     356.596E-03
            1929            2234     579.429E-03     564.648E-03
            1934            2234     579.429E-03     564.648E-03
            1933            2234     579.429E-03     564.648E-03
            1928            2234     579.429E-03     564.648E-03
            1930            2235     533.443E-03     536.687E-03
            1935            2235     533.443E-03     536.687E-03
            1929            2235     533.443E-03     536.687E-03
            1934            2235     533.443E-03     536.687E-03
            1936            2236     437.713E-03     438.946E-03
            1935            2236     437.713E-03     438.946E-03
            1930            2236     437.713E-03     438.946E-03
            1931            2236     437.713E-03     438.946E-03
            1937            2237     363.704E-03     360.575E-03
            1936            2237     363.704E-03     360.575E-03
            1932            2237     363.704E-03     360.575E-03
            1931            2237     363.704E-03     360.575E-03
            1939            2238     612.955E-03     616.143E-03
            1938            2238     612.955E-03     616.143E-03
            1933            2238     612.955E-03     616.143E-03
            1934            2238     612.955E-03     616.143E-03
            1935            2239     564.779E-03     567.963E-03
            1934            2239     564.779E-03     567.963E-03
            1940            2239     564.779E-03     567.963E-03
            1939            2239     564.779E-03     567.963E-03
            1936            2240     476.156E-03     472.529E-03
            1940            2240     476.156E-03     472.529E-03
            1941            2240     476.156E-03     472.529E-03
            1935            2240     476.156E-03     472.529E-03
            1942            2241     381.623E-03     376.370E-03
            1937            2241     381.623E-03     376.370E-03
            1936            2241     381.623E-03     376.370E-03
            1941            2241     381.623E-03     376.370E-03
            1938            2242     657.732E-03     666.165E-03
            1943            2242     657.732E-03     666.165E-03
            1944            2242     657.732E-03     666.165E-03
            1939            2242     657.732E-03     666.165E-03
            1945            2243     583.245E-03     593.855E-03
            1940            2243     583.245E-03     593.855E-03
            1944            2243     583.245E-03     593.855E-03
            1939            2243     583.245E-03     593.855E-03
            1940            2244     495.471E-03     495.772E-03
            1941            2244     495.471E-03     495.772E-03
            1946            2244     495.471E-03     495.772E-03
            1945            2244     495.471E-03     495.772E-03
            1941            2245     395.729E-03     392.632E-03
            1942            2245     395.729E-03     392.632E-03
            1946            2245     395.729E-03     392.632E-03
            1947            2245     395.729E-03     392.632E-03
            1949            2246     706.401E-03     754.493E-03
            1944            2246     706.401E-03     754.493E-03
            1948            2246     706.401E-03     754.493E-03
            1943            2246     706.401E-03     754.493E-03
            1950            2247     614.095E-03     661.388E-03
            1949            2247     614.095E-03     661.388E-03
            1945            2247     614.095E-03     661.388E-03
            1944            2247     614.095E-03     661.388E-03
            1945            2248     516.061E-03     535.712E-03
            1951            2248     516.061E-03     535.712E-03
            1950            2248     516.061E-03     535.712E-03
            1946            2248     516.061E-03     535.712E-03
            1947            2249     400.121E-03     411.508E-03
            1946            2249     400.121E-03     411.508E-03
            1952            2249     400.121E-03     411.508E-03
            1951            2249     400.121E-03     411.508E-03
            1948            2250     840.542E-03     818.725E-03
            1949            2250     840.542E-03     818.725E-03
            1954            2250     840.542E-03     818.725E-03
            1953            2250     840.542E-03     818.725E-03
            1950            2251     735.658E-03     703.227E-03
            1949            2251     735.658E-03     703.227E-03
            1955            2251     735.658E-03     703.227E-03
            1954            2251     735.658E-03     703.227E-03
            1950            2252     594.412E-03     555.221E-03
            1956            2252     594.412E-03     555.221E-03
            1951            2252     594.412E-03     555.221E-03
            1955            2252     594.412E-03     555.221E-03
            1956            2253     430.098E-03     421.459E-03
            1951            2253     430.098E-03     421.459E-03
            1957            2253     430.098E-03     421.459E-03
            1952            2253     430.098E-03     421.459E-03
            1958            2254     912.024E-03     903.015E-03
            1954            2254     912.024E-03     903.015E-03
            1953            2254     912.024E-03     903.015E-03
            1959            2254     912.024E-03     903.015E-03
            1960            2255     767.824E-03     755.040E-03
            1955            2255     767.824E-03     755.040E-03
            1959            2255     767.824E-03     755.040E-03
            1954            2255     767.824E-03     755.040E-03
            1961            2256     602.822E-03     575.308E-03
            1955            2256     602.822E-03     575.308E-03
            1956            2256     602.822E-03     575.308E-03
            1960            2256     602.822E-03     575.308E-03
            1961            2257     428.363E-03     411.233E-03
            1957            2257     428.363E-03     411.233E-03
            1956            2257     428.363E-03     411.233E-03
            1962            2257     428.363E-03     411.233E-03
            1959            2258     811.660E-03     955.570E-03
            1963            2258     811.660E-03     955.570E-03
            1964            2258     811.660E-03     955.570E-03
            1958            2258     811.660E-03     955.570E-03
            1959            2259     675.390E-03     830.552E-03
            1960            2259     675.390E-03     830.552E-03
            1965            2259     675.390E-03     830.552E-03
            1964            2259     675.390E-03     830.552E-03
            1960            2260     528.887E-03     609.243E-03
            1965            2260     528.887E-03     609.243E-03
            1961            2260     528.887E-03     609.243E-03
            1966            2260     528.887E-03     609.243E-03
            1962            2261     396.264E-03     415.939E-03
            1961            2261     396.264E-03     415.939E-03
            1967            2261     396.264E-03     415.939E-03
            1966            2261     396.264E-03     415.939E-03
            1963            2262     871.246E-03     851.528E-03
            1968            2262     871.246E-03     851.528E-03
            1969            2262     871.246E-03     851.528E-03
            1964            2262     871.246E-03     851.528E-03
            1969            2263     771.338E-03     772.051E-03
            1970            2263     771.338E-03     772.051E-03
            1964            2263     771.338E-03     772.051E-03
            1965            2263     771.338E-03     772.051E-03
            1966            2264     590.716E-03     586.990E-03
            1971            2264     590.716E-03     586.990E-03
            1970            2264     590.716E-03     586.990E-03
            1965            2264     590.716E-03     586.990E-03
            1967            2265     423.425E-03     418.064E-03
            1972            2265     423.425E-03     418.064E-03
            1966            2265     423.425E-03     418.064E-03
            1971            2265     423.425E-03     418.064E-03
            1973            2266     898.658E-03     898.193E-03
            1969            2266     898.658E-03     898.193E-03
            1968            2266     898.658E-03     898.193E-03
            1974            2266     898.658E-03     898.193E-03
            1974            2267     804.492E-03     800.687E-03
            1969            2267     804.492E-03     800.687E-03
            1970            2267     804.492E-03     800.687E-03
            1975            2267     804.492E-03     800.687E-03
            1976            2268     639.702E-03     626.067E-03
            1970            2268     639.702E-03     626.067E-03
            1971            2268     639.702E-03     626.067E-03
            1975            2268     639.702E-03     626.067E-03
            1977            2269     449.850E-03     439.823E-03
            1971            2269     449.850E-03     439.823E-03
            1976            2269     449.850E-03     439.823E-03
            1972            2269     449.850E-03     439.823E-03
            1973            2270     926.217E-03     946.513E-03
            1978            2270     926.217E-03     946.513E-03
            1979            2270     926.217E-03     946.513E-03
            1974            2270     926.217E-03     946.513E-03
            1974            2271     802.602E-03     825.339E-03
            1980            2271     802.602E-03     825.339E-03
            1979            2271     802.602E-03     825.339E-03
            1975            2271     802.602E-03     825.339E-03
            1980            2272     648.860E-03     652.653E-03
            1976            2272     648.860E-03     652.653E-03
            1975            2272     648.860E-03     652.653E-03
            1981            2272     648.860E-03     652.653E-03
            1981            2273     463.967E-03     461.495E-03
            1976            2273     463.967E-03     461.495E-03
            1982            2273     463.967E-03     461.495E-03
            1977            2273     463.967E-03     461.495E-03
            1978            2274     975.072E-03         1.03511
            1983            2274     975.072E-03         1.03511
            1979            2274     975.072E-03         1.03511
            1984            2274     975.072E-03         1.03511
            1984            2275     834.157E-03     894.102E-03
            1979            2275     834.157E-03     894.102E-03
            1985            2275     834.157E-03     894.102E-03
            1980            2275     834.157E-03     894.102E-03
            1985            2276     670.995E-03     694.991E-03
            1986            2276     670.995E-03     694.991E-03
            1980            2276     670.995E-03     694.991E-03
            1981            2276     670.995E-03     694.991E-03
            1981            2277     468.024E-03     483.432E-03
            1982            2277     468.024E-03     483.432E-03
            1987            2277     468.024E-03     483.432E-03
            1986            2277     468.024E-03     483.432E-03
            1984            2278         1.12717         1.10162
            1989            2278         1.12717         1.10162
            1988            2278         1.12717         1.10162
            1983            2278         1.12717         1.10162
            1989            2279     978.459E-03     938.758E-03
            1990            2279     978.459E-03     938.758E-03
            1985            2279     978.459E-03     938.758E-03
            1984            2279     978.459E-03     938.758E-03
            1991            2280     765.214E-03     714.804E-03
            1985            2280     765.214E-03     714.804E-03
            1986            2280     765.214E-03     714.804E-03
            1990            2280     765.214E-03     714.804E-03
            1987            2281     503.657E-03     492.664E-03
            1991            2281     503.657E-03     492.664E-03
            1992            2281     503.657E-03     492.664E-03
            1986            2281     503.657E-03     492.664E-03
            1988            2282         1.20538         1.19151
            1989            2282         1.20538         1.19151
            1994            2282         1.20538         1.19151
            1993            2282         1.20538         1.19151
            1990            2283         1.01086     995.014E-03
            1994            2283         1.01086     995.014E-03
            1989            2283         1.01086     995.014E-03
            1995            2283         1.01086     995.014E-03
            1991            2284     767.037E-03     732.932E-03
            1995            2284     767.037E-03     732.932E-03
            1996            2284     767.037E-03     732.932E-03
            1990            2284     767.037E-03     732.932E-03
            1992            2285     496.503E-03     475.428E-03
            1996            2285     496.503E-03     475.428E-03
            1991            2285     496.503E-03     475.428E-03
            1997            2285     496.503E-03     475.428E-03
            1998            2286         1.07474         1.26385
            1994            2286         1.07474         1.26385
            1999            2286         1.07474         1.26385
            1993            2286         1.07474         1.26385
            1995            2287     880.584E-03         1.08851
            1999            2287     880.584E-03         1.08851
            2000            2287     880.584E-03         1.08851
            1994            2287     880.584E-03         1.08851
            1996            2288     665.515E-03     778.144E-03
            2000            2288     665.515E-03     778.144E-03
            1995            2288     665.515E-03     778.144E-03
            2001            2288     665.515E-03     778.144E-03
            2002            2289     452.301E-03     484.808E-03
            2001            2289     452.301E-03     484.808E-03
            1996            2289     452.301E-03     484.808E-03
            1997            2289     452.301E-03     484.808E-03
            2003            2290         1.15757         1.14476
            2004            2290         1.15757         1.14476
            1998            2290         1.15757         1.14476
            1999            2290         1.15757         1.14476
            1999            2291         1.01456         1.01183
            2004            2291         1.01456         1.01183
            2005            2291         1.01456         1.01183
            2000            2291         1.01456         1.01183
            2000            2292     760.574E-03     746.477E-03
            2001            2292     760.574E-03     746.477E-03
            2006            2292     760.574E-03     746.477E-03
            2005            2292     760.574E-03     746.477E-03
            2007            2293     496.919E-03     490.978E-03
            2006            2293     496.919E-03     490.978E-03
            2002            2293     496.919E-03     490.978E-03
            2001            2293     496.919E-03     490.978E-03
            2008            2294         1.20453         1.15711
            2009            2294         1.20453         1.15711
            2003            2294         1.20453         1.15711
            2004            2294         1.20453         1.15711
            2005            2295         1.06089         1.01322
            2010            2295         1.06089         1.01322
            2009            2295         1.06089         1.01322
            2004            2295         1.06089         1.01322
            2006            2296     819.404E-03     776.230E-03
            2011            2296     819.404E-03     776.230E-03
            2005            2296     819.404E-03     776.230E-03
            2010            2296     819.404E-03     776.230E-03
            2006            2297     530.888E-03     510.681E-03
            2011            2297     530.888E-03     510.681E-03
            2012            2297     530.888E-03     510.681E-03
            2007            2297     530.888E-03     510.681E-03
            2014            2298         1.15490         1.27952
            2013            2298         1.15490         1.27952
            2008            2298         1.15490         1.27952
            2009            2298         1.15490         1.27952
            2015            2299     985.127E-03         1.11390
            2014            2299     985.127E-03         1.11390
            2010            2299     985.127E-03         1.11390
            2009            2299     985.127E-03         1.11390
            2015            2300     785.603E-03     854.040E-03
            2011            2300     785.603E-03     854.040E-03
            2010            2300     785.603E-03     854.040E-03
            2016            2300     785.603E-03     854.040E-03
            2011            2301     521.021E-03     554.045E-03
            2016            2301     521.021E-03     554.045E-03
            2012            2301     521.021E-03     554.045E-03
            2017            2301     521.021E-03     554.045E-03
            2013            2302         1.36171         1.30397
            2018            2302         1.36171         1.30397
            2014            2302         1.36171         1.30397
            2019            2302         1.36171         1.30397
            2019            2303         1.17981         1.10832
            2015            2303         1.17981         1.10832
            2014            2303         1.17981         1.10832
            2020            2303         1.17981         1.10832
            2016            2304     907.143E-03     840.090E-03
            2015            2304     907.143E-03     840.090E-03
            2021            2304     907.143E-03     840.090E-03
            2020            2304     907.143E-03     840.090E-03
            2021            2305     565.965E-03     553.325E-03
            2016            2305     565.965E-03     553.325E-03
            2017            2305     565.965E-03     553.325E-03
            2022            2305     565.965E-03     553.325E-03
            2018            2306         1.43171         1.42173
            2019            2306         1.43171         1.42173
            2024            2306         1.43171         1.42173
            2023            2306         1.43171         1.42173
            2024            2307         1.20216         1.18472
            2020            2307         1.20216         1.18472
            2025            2307         1.20216         1.18472
            2019            2307         1.20216         1.18472
            2020            2308     902.158E-03     861.994E-03
            2026            2308     902.158E-03     861.994E-03
            2021            2308     902.158E-03     861.994E-03
            2025            2308     902.158E-03     861.994E-03
            2021            2309     555.425E-03     532.542E-03
            2026            2309     555.425E-03     532.542E-03
            2027            2309     555.425E-03     532.542E-03
            2022            2309     555.425E-03     532.542E-03
            2151            2384         1.41313         1.43918
            2146            2384         1.41313         1.43918
            2150            2384         1.41313         1.43918
            2145            2384         1.41313         1.43918
            2146            2385         1.27105         1.29157
            2151            2385         1.27105         1.29157
            2147            2385         1.27105         1.29157
            2152            2385         1.27105         1.29157
            2147            2386         1.06354         1.07535
            2148            2386         1.06354         1.07535
            2153            2386         1.06354         1.07535
            2152            2386         1.06354         1.07535
            2153            2387     866.466E-03     867.984E-03
            2154            2387     866.466E-03     867.984E-03
            2149            2387     866.466E-03     867.984E-03
            2148            2387     866.466E-03     867.984E-03
            2150            2388         1.31371         1.40820
            2156            2388         1.31371         1.40820
            2155            2388         1.31371         1.40820
            2151            2388         1.31371         1.40820
            2157            2389         1.17536         1.25716
            2151            2389         1.17536         1.25716
            2152            2389         1.17536         1.25716
            2156            2389         1.17536         1.25716
            2158            2390         1.03041         1.06293
            2153            2390         1.03041         1.06293
            2152            2390         1.03041         1.06293
            2157            2390         1.03041         1.06293
            2159            2391     893.386E-03     893.930E-03
            2154            2391     893.386E-03     893.930E-03
            2158            2391     893.386E-03     893.930E-03
            2153            2391     893.386E-03     893.930E-03
            2161            2392         1.32651         1.31955
            2155            2392         1.32651         1.31955
            2156            2392         1.32651         1.31955
            2160            2392         1.32651         1.31955
            2162            2393         1.18378         1.15868
            2157            2393         1.18378         1.15868
            2161            2393         1.18378         1.15868
            2156            2393         1.18378         1.15868
            2163            2394         1.02484     991.517E-03
            2162            2394         1.02484     991.517E-03
            2158            2394         1.02484     991.517E-03
            2157            2394         1.02484     991.517E-03
            2159            2395     857.455E-03     835.644E-03
            2164            2395     857.455E-03     835.644E-03
            2163            2395     857.455E-03     835.644E-03
            2158            2395     857.455E-03     835.644E-03
            2160            2396         1.20328         1.10740
            2161            2396         1.20328         1.10740
            2166            2396         1.20328         1.10740
            2165            2396         1.20328         1.10740
            2162            2397         1.14501         1.07112
            2161            2397         1.14501         1.07112
            2166            2397         1.14501         1.07112
            2167            2397         1.14501         1.07112
            2162            2398     989.401E-03     937.832E-03
            2163            2398     989.401E-03     937.832E-03
            2167            2398     989.401E-03     937.832E-03
            2168            2398     989.401E-03     937.832E-03
            2164            2399     843.582E-03     831.883E-03
            2168            2399     843.582E-03     831.883E-03
            2169            2399     843.582E-03     831.883E-03
            2163            2399     843.582E-03     831.883E-03
            2171            2400     799.428E-03     779.754E-03
            2170            2400     799.428E-03     779.754E-03
            2176            2400     799.428E-03     779.754E-03
            2175            2400     799.428E-03     779.754E-03
            2172            2401     872.240E-03     847.040E-03
            2171            2401     872.240E-03     847.040E-03
            2176            2401     872.240E-03     847.040E-03
            2177            2401     872.240E-03     847.040E-03
            2172            2402     939.939E-03     923.157E-03
            2178            2402     939.939E-03     923.157E-03
            2173            2402     939.939E-03     923.157E-03
            2177            2402     939.939E-03     923.157E-03
            2179            2403         1.01746         1.01845
            2174            2403         1.01746         1.01845
            2173            2403         1.01746         1.01845
            2178            2403         1.01746         1.01845
            2180            2404     792.020E-03     779.778E-03
            2175            2404     792.020E-03     779.778E-03
            2181            2404     792.020E-03     779.778E-03
            2176            2404     792.020E-03     779.778E-03
            2182            2405     848.927E-03     803.349E-03
            2181            2405     848.927E-03     803.349E-03
            2176            2405     848.927E-03     803.349E-03
            2177            2405     848.927E-03     803.349E-03
            2178            2406     919.251E-03     847.575E-03
            2183            2406     919.251E-03     847.575E-03
            2182            2406     919.251E-03     847.575E-03
            2177            2406     919.251E-03     847.575E-03
            2179            2407     916.646E-03     820.170E-03
            2183            2407     916.646E-03     820.170E-03
            2178            2407     916.646E-03     820.170E-03
            2184            2407     916.646E-03     820.170E-03
            2181            2408     762.525E-03     778.301E-03
            2185            2408     762.525E-03     778.301E-03
            2186            2408     762.525E-03     778.301E-03
            2180            2408     762.525E-03     778.301E-03
            2187            2409     756.155E-03     819.958E-03
            2182            2409     756.155E-03     819.958E-03
            2181            2409     756.155E-03     819.958E-03
            2186            2409     756.155E-03     819.958E-03
            2188            2410     745.382E-03     893.493E-03
            2182            2410     745.382E-03     893.493E-03
            2187            2410     745.382E-03     893.493E-03
            2183            2410     745.382E-03     893.493E-03
            2189            2411     782.896E-03     935.092E-03
            2183            2411     782.896E-03     935.092E-03
            2184            2411     782.896E-03     935.092E-03
            2188            2411     782.896E-03     935.092E-03
            2190            2412     798.780E-03     777.465E-03
            2185            2412     798.780E-03     777.465E-03
            2191            2412     798.780E-03     777.465E-03
            2186            2412     798.780E-03     777.465E-03
            2187            2413     802.473E-03     775.321E-03
            2191            2413     802.473E-03     775.321E-03
            2186            2413     802.473E-03     775.321E-03
            2192            2413     802.473E-03     775.321E-03
            2193            2414     808.520E-03     799.106E-03
            2188            2414     808.520E-03     799.106E-03
            2192            2414     808.520E-03     799.106E-03
            2187            2414     808.520E-03     799.106E-03
            2188            2415     893.388E-03     894.896E-03
            2189            2415     893.388E-03     894.896E-03
            2193            2415     893.388E-03     894.896E-03
            2194            2415     893.388E-03     894.896E-03
            2190            2416     791.657E-03     781.384E-03
            2195            2416     791.657E-03     781.384E-03
            2196            2416     791.657E-03     781.384E-03
            2191            2416     791.657E-03     781.384E-03
            2196            2417     775.241E-03     737.934E-03
            2192            2417     775.241E-03     737.934E-03
            2197            2417     775.241E-03     737.934E-03
            2191            2417     775.241E-03     737.934E-03
            2197            2418     749.162E-03     705.687E-03
            2192            2418     749.162E-03     705.687E-03
            2198            2418     749.162E-03     705.687E-03
            2193            2418     749.162E-03     705.687E-03
            2199            2419     756.057E-03     717.176E-03
            2193            2419     756.057E-03     717.176E-03
            2194            2419     756.057E-03     717.176E-03
            2198            2419     756.057E-03     717.176E-03
            2195            2420     759.321E-03     768.125E-03
            2201            2420     759.321E-03     768.125E-03
            2200            2420     759.321E-03     768.125E-03
            2196            2420     759.321E-03     768.125E-03
            2197            2421     690.012E-03     712.027E-03
            2202            2421     690.012E-03     712.027E-03
            2196            2421     690.012E-03     712.027E-03
            2201            2421     690.012E-03     712.027E-03
            2202            2422     585.328E-03     632.978E-03
            2203            2422     585.328E-03     632.978E-03
            2197            2422     585.328E-03     632.978E-03
            2198            2422     585.328E-03     632.978E-03
            2203            2423     521.792E-03     579.197E-03
            2198            2423     521.792E-03     579.197E-03
            2204            2423     521.792E-03     579.197E-03
            2199            2423     521.792E-03     579.197E-03
            2200            2424     754.342E-03     751.795E-03
            2205            2424     754.342E-03     751.795E-03
            2206            2424     754.342E-03     751.795E-03
            2201            2424     754.342E-03     751.795E-03
            2207            2425     666.710E-03     664.003E-03
            2201            2425     666.710E-03     664.003E-03
            2206            2425     666.710E-03     664.003E-03
            2202            2425     666.710E-03     664.003E-03
            2203            2426     534.229E-03     515.804E-03
            2208            2426     534.229E-03     515.804E-03
            2202            2426     534.229E-03     515.804E-03
            2207            2426     534.229E-03     515.804E-03
            2209            2427     414.635E-03     383.843E-03
            2204            2427     414.635E-03     383.843E-03
            2208            2427     414.635E-03     383.843E-03
            2203            2427     414.635E-03     383.843E-03
            2205            2428     747.314E-03     744.280E-03
            2211            2428     747.314E-03     744.280E-03
            2206            2428     747.314E-03     744.280E-03
            2210            2428     747.314E-03     744.280E-03
            2211            2429     634.070E-03     645.408E-03
            2206            2429     634.070E-03     645.408E-03
            2212            2429     634.070E-03     645.408E-03
            2207            2429     634.070E-03     645.408E-03
            2213            2430     471.165E-03     483.755E-03
            2212            2430     471.165E-03     483.755E-03
            2207            2430     471.165E-03     483.755E-03
            2208            2430     471.165E-03     483.755E-03
            2208            2431     273.234E-03     282.525E-03
            2209            2431     273.234E-03     282.525E-03
            2214            2431     273.234E-03     282.525E-03
            2213            2431     273.234E-03     282.525E-03
            2216            2432     742.854E-03     734.687E-03
            2210            2432     742.854E-03     734.687E-03
            2211            2432     742.854E-03     734.687E-03
            2215            2432     742.854E-03     734.687E-03
            2212            2433     613.522E-03     622.065E-03
            2211            2433     613.522E-03     622.065E-03
            2216            2433     613.522E-03     622.065E-03
            2217            2433     613.522E-03     622.065E-03
            2218            2434     446.065E-03     461.933E-03
            2217            2434     446.065E-03     461.933E-03
            2212            2434     446.065E-03     461.933E-03
            2213            2434     446.065E-03     461.933E-03
            2213            2435     232.298E-03     266.897E-03
            2218            2435     232.298E-03     266.897E-03
            2219            2435     232.298E-03     266.897E-03
            2214            2435     232.298E-03     266.897E-03
            2220            2436     603.935E-03     600.646E-03
            2221            2436     603.935E-03     600.646E-03
            2216            2436     603.935E-03     600.646E-03
            2215            2436     603.935E-03     600.646E-03
            2217            2437     512.903E-03     513.477E-03
            2221            2437     512.903E-03     513.477E-03
            2216            2437     512.903E-03     513.477E-03
            2222            2437     512.903E-03     513.477E-03
            2222            2438     387.902E-03     390.548E-03
            2223            2438     387.902E-03     390.548E-03
            2218            2438     387.902E-03     390.548E-03
            2217            2438     387.902E-03     390.548E-03
            2219            2439     239.333E-03     257.816E-03
            2224            2439     239.333E-03     257.816E-03
            2223            2439     239.333E-03     257.816E-03
            2218            2439     239.333E-03     257.816E-03
            2727            2828     504.527E-03     524.961E-03
            2722            2828     504.527E-03     524.961E-03
            2721            2828     504.527E-03     524.961E-03
            2726            2828     504.527E-03     524.961E-03
            2728            2829     817.810E-03     864.495E-03
            2727            2829     817.810E-03     864.495E-03
            2723            2829     817.810E-03     864.495E-03
            2722            2829     817.810E-03     864.495E-03
            2728            2830         1.10331         1.18235
            2723            2830         1.10331         1.18235
            2729            2830         1.10331         1.18235
            2724            2830         1.10331         1.18235
            2724            2831         1.30014         1.36998
            2725            2831         1.30014         1.36998
            2730            2831         1.30014         1.36998
            2729            2831         1.30014         1.36998
            2726            2832     563.170E-03     584.099E-03
            2727            2832     563.170E-03     584.099E-03
            2732            2832     563.170E-03     584.099E-03
            2731            2832     563.170E-03     584.099E-03
            2732            2833     913.125E-03     934.121E-03
            2728            2833     913.125E-03     934.121E-03
            2733            2833     913.125E-03     934.121E-03
            2727            2833     913.125E-03     934.121E-03
            2734            2834         1.21370         1.26415
            2733            2834         1.21370         1.26415
            2728            2834         1.21370         1.26415
            2729            2834         1.21370         1.26415
            2729            2835         1.39945         1.44158
            2734            2835         1.39945         1.44158
            2730            2835         1.39945         1.44158
            2735            2835         1.39945         1.44158
            2731            2836     625.187E-03     603.712E-03
            2737            2836     625.187E-03     603.712E-03
            2732            2836     625.187E-03     603.712E-03
            2736            2836     625.187E-03     603.712E-03
            2732            2837         1.05460     967.264E-03
            2738            2837         1.05460     967.264E-03
            2737            2837         1.05460     967.264E-03
            2733            2837         1.05460     967.264E-03
            2734            2838         1.38881         1.27888
            2738            2838         1.38881         1.27888
            2739            2838         1.38881         1.27888
            2733            2838         1.38881         1.27888
            2734            2839         1.57098         1.46814
            2739            2839         1.57098         1.46814
            2740            2839         1.57098         1.46814
            2735            2839         1.57098         1.46814
            2737            2840     601.829E-03     595.076E-03
            2741            2840     601.829E-03     595.076E-03
            2736            2840     601.829E-03     595.076E-03
            2742            2840     601.829E-03     595.076E-03
            2743            2841     993.582E-03     986.986E-03
            2737            2841     993.582E-03     986.986E-03
            2738            2841     993.582E-03     986.986E-03
            2742            2841     993.582E-03     986.986E-03
            2743            2842         1.31773         1.34036
            2744            2842         1.31773         1.34036
            2738            2842         1.31773         1.34036
            2739            2842         1.31773         1.34036
            2744            2843         1.56411         1.59493
            2739            2843         1.56411         1.59493
            2740            2843         1.56411         1.59493
            2745            2843         1.56411         1.59493
            2764            2854         1.01746         1.01845
            2765            2854         1.01746         1.01845
            2769            2854         1.01746         1.01845
            2770            2854         1.01746         1.01845
            2771            2855     939.939E-03     923.157E-03
            2765            2855     939.939E-03     923.157E-03
            2770            2855     939.939E-03     923.157E-03
            2766            2855     939.939E-03     923.157E-03
            2772            2856     872.240E-03     847.040E-03
            2766            2856     872.240E-03     847.040E-03
            2767            2856     872.240E-03     847.040E-03
            2771            2856     872.240E-03     847.040E-03
            2772            2857     799.428E-03     779.754E-03
            2767            2857     799.428E-03     779.754E-03
            2768            2857     799.428E-03     779.754E-03
            2773            2857     799.428E-03     779.754E-03
            2769            2858     916.646E-03     820.170E-03
            2775            2858     916.646E-03     820.170E-03
            2770            2858     916.646E-03     820.170E-03
            2774            2858     916.646E-03     820.170E-03
            2776            2859     919.251E-03     847.575E-03
            2775            2859     919.251E-03     847.575E-03
            2771            2859     919.251E-03     847.575E-03
            2770            2859     919.251E-03     847.575E-03
            2771            2860     848.927E-03     803.349E-03
            2776            2860     848.927E-03     803.349E-03
            2772            2860     848.927E-03     803.349E-03
            2777            2860     848.927E-03     803.349E-03
            2773            2861     792.020E-03     779.778E-03
            2772            2861     792.020E-03     779.778E-03
            2778            2861     792.020E-03     779.778E-03
            2777            2861     792.020E-03     779.778E-03
            2774            2862     782.896E-03     935.092E-03
            2780            2862     782.896E-03     935.092E-03
            2775            2862     782.896E-03     935.092E-03
            2779            2862     782.896E-03     935.092E-03
            2775            2863     745.382E-03     893.493E-03
            2781            2863     745.382E-03     893.493E-03
            2780            2863     745.382E-03     893.493E-03
            2776            2863     745.382E-03     893.493E-03
            2781            2864     756.155E-03     819.958E-03
            2777            2864     756.155E-03     819.958E-03
            2782            2864     756.155E-03     819.958E-03
            2776            2864     756.155E-03     819.958E-03
            2782            2865     762.525E-03     778.301E-03
            2777            2865     762.525E-03     778.301E-03
            2783            2865     762.525E-03     778.301E-03
            2778            2865     762.525E-03     778.301E-03
            2785            2866     893.388E-03     894.896E-03
            2784            2866     893.388E-03     894.896E-03
            2779            2866     893.388E-03     894.896E-03
            2780            2866     893.388E-03     894.896E-03
            2785            2867     808.520E-03     799.106E-03
            2780            2867     808.520E-03     799.106E-03
            2781            2867     808.520E-03     799.106E-03
            2786            2867     808.520E-03     799.106E-03
            2787            2868     802.473E-03     775.321E-03
            2786            2868     802.473E-03     775.321E-03
            2781            2868     802.473E-03     775.321E-03
            2782            2868     802.473E-03     775.321E-03
            2782            2869     798.780E-03     777.465E-03
            2783            2869     798.780E-03     777.465E-03
            2787            2869     798.780E-03     777.465E-03
            2788            2869     798.780E-03     777.465E-03
            2789            2870     756.057E-03     717.176E-03
            2790            2870     756.057E-03     717.176E-03
            2785            2870     756.057E-03     717.176E-03
            2784            2870     756.057E-03     717.176E-03
            2786            2871     749.162E-03     705.687E-03
            2790            2871     749.162E-03     705.687E-03
            2791            2871     749.162E-03     705.687E-03
            2785            2871     749.162E-03     705.687E-03
            2787            2872     775.241E-03     737.934E-03
            2786            2872     775.241E-03     737.934E-03
            2792            2872     775.241E-03     737.934E-03
            2791            2872     775.241E-03     737.934E-03
            2788            2873     791.657E-03     781.384E-03
            2793            2873     791.657E-03     781.384E-03
            2787            2873     791.657E-03     781.384E-03
            2792            2873     791.657E-03     781.384E-03
            2794            2874     521.792E-03     579.197E-03
            2789            2874     521.792E-03     579.197E-03
            2790            2874     521.792E-03     579.197E-03
            2795            2874     521.792E-03     579.197E-03
            2796            2875     585.328E-03     632.978E-03
            2791            2875     585.328E-03     632.978E-03
            2795            2875     585.328E-03     632.978E-03
            2790            2875     585.328E-03     632.978E-03
            2791            2876     690.012E-03     712.027E-03
            2797            2876     690.012E-03     712.027E-03
            2796            2876     690.012E-03     712.027E-03
            2792            2876     690.012E-03     712.027E-03
            2792            2877     759.321E-03     768.125E-03
            2798            2877     759.321E-03     768.125E-03
            2793            2877     759.321E-03     768.125E-03
            2797            2877     759.321E-03     768.125E-03
            2795            2878     414.635E-03     383.843E-03
            2800            2878     414.635E-03     383.843E-03
            2799            2878     414.635E-03     383.843E-03
            2794            2878     414.635E-03     383.843E-03
            2800            2879     534.229E-03     515.804E-03
            2795            2879     534.229E-03     515.804E-03
            2801            2879     534.229E-03     515.804E-03
            2796            2879     534.229E-03     515.804E-03
            2797            2880     666.710E-03     664.003E-03
            2801            2880     666.710E-03     664.003E-03
            2802            2880     666.710E-03     664.003E-03
            2796            2880     666.710E-03     664.003E-03
            2803            2881     754.342E-03     751.795E-03
            2802            2881     754.342E-03     751.795E-03
            2797            2881     754.342E-03     751.795E-03
            2798            2881     754.342E-03     751.795E-03
            2800            2882     273.234E-03     282.525E-03
            2804            2882     273.234E-03     282.525E-03
            2805            2882     273.234E-03     282.525E-03
            2799            2882     273.234E-03     282.525E-03
            2801            2883     471.165E-03     483.755E-03
            2805            2883     471.165E-03     483.755E-03
            2806            2883     471.165E-03     483.755E-03
            2800            2883     471.165E-03     483.755E-03
            2807            2884     634.070E-03     645.408E-03
            2801            2884     634.070E-03     645.408E-03
            2806            2884     634.070E-03     645.408E-03
            2802            2884     634.070E-03     645.408E-03
            2808            2885     747.314E-03     744.280E-03
            2802            2885     747.314E-03     744.280E-03
            2803            2885     747.314E-03     744.280E-03
            2807            2885     747.314E-03     744.280E-03
            2810            2886     232.298E-03     266.897E-03
            2804            2886     232.298E-03     266.897E-03
            2809            2886     232.298E-03     266.897E-03
            2805            2886     232.298E-03     266.897E-03
            2811            2887     446.065E-03     461.933E-03
            2806            2887     446.065E-03     461.933E-03
            2805            2887     446.065E-03     461.933E-03
            2810            2887     446.065E-03     461.933E-03
            2812            2888     613.522E-03     622.065E-03
            2806            2888     613.522E-03     622.065E-03
            2807            2888     613.522E-03     622.065E-03
            2811            2888     613.522E-03     622.065E-03
            2812            2889     742.854E-03     734.687E-03
            2813            2889     742.854E-03     734.687E-03
            2808            2889     742.854E-03     734.687E-03
            2807            2889     742.854E-03     734.687E-03
            2814            2890     239.333E-03     257.816E-03
            2815            2890     239.333E-03     257.816E-03
            2810            2890     239.333E-03     257.816E-03
            2809            2890     239.333E-03     257.816E-03
            2816            2891     387.902E-03     390.548E-03
            2810            2891     387.902E-03     390.548E-03
            2811            2891     387.902E-03     390.548E-03
            2815            2891     387.902E-03     390.548E-03
            2816            2892     512.903E-03     513.477E-03
            2817            2892     512.903E-03     513.477E-03
            2811            2892     512.903E-03     513.477E-03
            2812            2892     512.903E-03     513.477E-03
            2817            2893     603.935E-03     600.646E-03
            2813            2893     603.935E-03     600.646E-03
            2818            2893     603.935E-03     600.646E-03
            2812            2893     603.935E-03     600.646E-03
            2858            2912     10.5087E-15     10.1420E-15
            2853            2912     10.5087E-15     10.1420E-15
            2852            2912     10.5087E-15     10.1420E-15
            2857            2912     10.5087E-15     10.1420E-15
            2854            2913     8.34178E-15     8.53421E-15
            2853            2913     8.34178E-15     8.53421E-15
            2858            2913     8.34178E-15     8.53421E-15
            2859            2913     8.34178E-15     8.53421E-15
            2854            2914     7.79990E-15     7.80851E-15
            2860            2914     7.79990E-15     7.80851E-15
            2859            2914     7.79990E-15     7.80851E-15
            2855            2914     7.79990E-15     7.80851E-15
            2856            2915     6.90936E-15     7.22834E-15
            2860            2915     6.90936E-15     7.22834E-15
            2861            2915     6.90936E-15     7.22834E-15
            2855            2915     6.90936E-15     7.22834E-15
            2858            2916     10.8371E-15     11.8227E-15
            2863            2916     10.8371E-15     11.8227E-15
            2862            2916     10.8371E-15     11.8227E-15
            2857            2916     10.8371E-15     11.8227E-15
            2858            2917     5.27076E-15     5.85365E-15
            2864            2917     5.27076E-15     5.85365E-15
            2863            2917     5.27076E-15     5.85365E-15
            2859            2917     5.27076E-15     5.85365E-15
            2859            2918     5.63667E-15     4.56097E-15
            2860            2918     5.63667E-15     4.56097E-15
            2865            2918     5.63667E-15     4.56097E-15
            2864            2918     5.63667E-15     4.56097E-15
            2865            2919     4.60591E-15     3.79204E-15
            2866            2919     4.60591E-15     3.79204E-15
            2861            2919     4.60591E-15     3.79204E-15
            2860            2919     4.60591E-15     3.79204E-15
            2863            2920     13.6895E-15     15.0866E-15
            2862            2920     13.6895E-15     15.0866E-15
            2868            2920     13.6895E-15     15.0866E-15
            2867            2920     13.6895E-15     15.0866E-15
            2863            2921     10.1328E-15     11.3650E-15
            2864            2921     10.1328E-15     11.3650E-15
            2868            2921     10.1328E-15     11.3650E-15
            2869            2921     10.1328E-15     11.3650E-15
            2865            2922     4.22464E-15     4.06854E-15
            2870            2922     4.22464E-15     4.06854E-15
            2869            2922     4.22464E-15     4.06854E-15
            2864            2922     4.22464E-15     4.06854E-15
            2871            2923     3.50571E-15     2.98385E-15
            2870            2923     3.50571E-15     2.98385E-15
            2865            2923     3.50571E-15     2.98385E-15
            2866            2923     3.50571E-15     2.98385E-15
            2868            2924     11.6739E-15     13.1689E-15
            2867            2924     11.6739E-15     13.1689E-15
            2873            2924     11.6739E-15     13.1689E-15
            2872            2924     11.6739E-15     13.1689E-15
            2873            2925     11.0250E-15     12.3686E-15
            2868            2925     11.0250E-15     12.3686E-15
            2869            2925     11.0250E-15     12.3686E-15
            2874            2925     11.0250E-15     12.3686E-15
            2875            2926     5.20073E-15     5.32939E-15
            2870            2926     5.20073E-15     5.32939E-15
            2874            2926     5.20073E-15     5.32939E-15
            2869            2926     5.20073E-15     5.32939E-15
            2870            2927     3.69572E-15     4.00395E-15
            2876            2927     3.69572E-15     4.00395E-15
            2871            2927     3.69572E-15     4.00395E-15
            2875            2927     3.69572E-15     4.00395E-15
            2877            2928     15.4269E-15     15.1617E-15
            2873            2928     15.4269E-15     15.1617E-15
            2878            2928     15.4269E-15     15.1617E-15
            2872            2928     15.4269E-15     15.1617E-15
            2873            2929     13.9005E-15     13.7032E-15
            2874            2929     13.9005E-15     13.7032E-15
            2879            2929     13.9005E-15     13.7032E-15
            2878            2929     13.9005E-15     13.7032E-15
            2879            2930     6.74668E-15     7.04061E-15
            2880            2930     6.74668E-15     7.04061E-15
            2874            2930     6.74668E-15     7.04061E-15
            2875            2930     6.74668E-15     7.04061E-15
            2876            2931     7.77477E-15     8.72083E-15
            2881            2931     7.77477E-15     8.72083E-15
            2880            2931     7.77477E-15     8.72083E-15
            2875            2931     7.77477E-15     8.72083E-15
            3192            3177     6.83189E-15     6.92966E-15
            3187            3177     6.83189E-15     6.92966E-15
            3188            3177     6.83189E-15     6.92966E-15
            3193            3177     6.83189E-15     6.92966E-15
            3193            3178     5.48866E-15     4.89131E-15
            3189            3178     5.48866E-15     4.89131E-15
            3188            3178     5.48866E-15     4.89131E-15
            3194            3178     5.48866E-15     4.89131E-15
            3194            3179     9.75720E-15     8.86981E-15
            3190            3179     9.75720E-15     8.86981E-15
            3195            3179     9.75720E-15     8.86981E-15
            3189            3179     9.75720E-15     8.86981E-15
            3195            3180     11.0020E-15     11.1054E-15
            3196            3180     11.0020E-15     11.1054E-15
            3190            3180     11.0020E-15     11.1054E-15
            3191            3180     11.0020E-15     11.1054E-15
            3198            3181     2.26976E-15     2.40639E-15
            3193            3181     2.26976E-15     2.40639E-15
            3197            3181     2.26976E-15     2.40639E-15
            3192            3181     2.26976E-15     2.40639E-15
            3194            3182     3.14087E-15     2.73978E-15
            3198            3182     3.14087E-15     2.73978E-15
            3193            3182     3.14087E-15     2.73978E-15
            3199            3182     3.14087E-15     2.73978E-15
            3199            3183     4.92020E-15     5.51335E-15
            3194            3183     4.92020E-15     5.51335E-15
            3200            3183     4.92020E-15     5.51335E-15
            3195            3183     4.92020E-15     5.51335E-15
            3200            3184     6.84559E-15     7.99169E-15
            3201            3184     6.84559E-15     7.99169E-15
            3195            3184     6.84559E-15     7.99169E-15
            3196            3184     6.84559E-15     7.99169E-15
            3203            3185     1.44624E-15     2.05419E-15
            3202            3185     1.44624E-15     2.05419E-15
            3197            3185     1.44624E-15     2.05419E-15
            3198            3185     1.44624E-15     2.05419E-15
            3199            3186     1.82862E-15     2.17883E-15
            3203            3186     1.82862E-15     2.17883E-15
            3204            3186     1.82862E-15     2.17883E-15
            3198            3186     1.82862E-15     2.17883E-15
            3204            3187     5.85971E-15     7.84076E-15
            3199            3187     5.85971E-15     7.84076E-15
            3200            3187     5.85971E-15     7.84076E-15
            3205            3187     5.85971E-15     7.84076E-15
            3205            3188     9.30965E-15     11.1513E-15
            3200            3188     9.30965E-15     11.1513E-15
            3201            3188     9.30965E-15     11.1513E-15
            3206            3188     9.30965E-15     11.1513E-15
            3203            3189     2.28630E-15     3.86571E-15
            3208            3189     2.28630E-15     3.86571E-15
            3202            3189     2.28630E-15     3.86571E-15
            3207            3189     2.28630E-15     3.86571E-15
            3203            3190     3.07731E-15     3.94251E-15
            3204            3190     3.07731E-15     3.94251E-15
            3208            3190     3.07731E-15     3.94251E-15
            3209            3190     3.07731E-15     3.94251E-15
            3205            3191     8.31475E-15     8.49346E-15
            3209            3191     8.31475E-15     8.49346E-15
            3210            3191     8.31475E-15     8.49346E-15
            3204            3191     8.31475E-15     8.49346E-15
            3210            3192     9.73413E-15     10.2633E-15
            3206            3192     9.73413E-15     10.2633E-15
            3205            3192     9.73413E-15     10.2633E-15
            3211            3192     9.73413E-15     10.2633E-15
            3213            3193     5.86470E-15     7.18689E-15
            3212            3193     5.86470E-15     7.18689E-15
            3207            3193     5.86470E-15     7.18689E-15
            3208            3193     5.86470E-15     7.18689E-15
            3214            3194     5.46441E-15     6.36241E-15
            3208            3194     5.46441E-15     6.36241E-15
            3213            3194     5.46441E-15     6.36241E-15
            3209            3194     5.46441E-15     6.36241E-15
            3214            3195     9.58665E-15     9.37564E-15
            3209            3195     9.58665E-15     9.37564E-15
            3210            3195     9.58665E-15     9.37564E-15
            3215            3195     9.58665E-15     9.37564E-15
            3215            3196     9.58902E-15     9.68993E-15
            3210            3196     9.58902E-15     9.68993E-15
            3211            3196     9.58902E-15     9.68993E-15
            3216            3196     9.58902E-15     9.68993E-15


  Minimum                            1.44624E-15     2.05419E-15
      At Element                            3203            3203
            Node                            3185            3185

  Maximum                                1.68240         1.76882
      At Element                            2745            2745
            Node                             389              20

           Total                     1.47233E+03     1.49330E+03


Field Output reported at element nodes for region: CRJ700-1.Region_2
   Computation algorithm: EXTRAPOLATE_COMPUTE_AVERAGE
   Averaged at nodes
   Averaging regions: ODB_REGIONS

   Element Label      Node Label         S.Mises         S.Mises
                                          @Loc 1          @Loc 2
-----------------------------------------------------------------
            2030               2     81.4015E-03     80.8007E-03
             841               2     81.4015E-03     80.8007E-03
             981               3         1.26874         1.22078
            2129               3         1.26874         1.22078
             963               5     81.4015E-03     80.8007E-03
             859               5     81.4015E-03     80.8007E-03
             978               6     18.3574E-15     20.6449E-15
             856               9     42.0998E-15     42.5554E-15
            2225              11         1.26874         1.22078
             958              11         1.26874         1.22078
             861              13     80.9809E-03     80.3769E-03
            2028              13     80.9809E-03     80.3769E-03
             843              13     80.9809E-03     80.3769E-03
             961              13     80.9809E-03     80.3769E-03
             976              14     42.2975E-15     42.3764E-15
             858              14     42.2975E-15     42.3764E-15
            2227              15     300.348E-03     301.754E-03
             960              15     300.348E-03     301.754E-03
            2127              15     300.348E-03     301.754E-03
             979              15     300.348E-03     301.754E-03
            2839              16         1.55261         1.50983
             993              16         1.55261         1.50983
             991              17     497.650E-03     498.104E-03
            2239              17     497.650E-03     498.104E-03
            2837              17     497.650E-03     498.104E-03
            2132              17     497.650E-03     498.104E-03
            2130              20         1.55261         1.50983
            2237              20         1.55261         1.50983
            2242              21         1.08539         1.04471
            2851              21         1.08539         1.04471
            2882              23         1.08539         1.04471
            2142              23         1.08539         1.04471
            2849              25     811.356E-03     811.751E-03
            2884              25     811.356E-03     811.751E-03
            2144              25     811.356E-03     811.751E-03
            2240              25     811.356E-03     811.751E-03
            2746              26     198.314E-03     196.849E-03
            2912              26     198.314E-03     196.849E-03
            2272              28     198.314E-03     196.849E-03
            2821              28     198.314E-03     196.849E-03
            2914              29     197.335E-03     195.863E-03
            2819              29     197.335E-03     195.863E-03
            2748              29     197.335E-03     195.863E-03
            2270              29     197.335E-03     195.863E-03
            2836              31     2.72021E-15     1.60419E-15
            2763              33     11.1894E-15     11.6325E-15
            2834              33     11.1894E-15     11.6325E-15
            2761              34     13.3214E-15     13.2189E-15
            2033              51     196.780E-03     197.016E-03
            2030              51     196.780E-03     197.016E-03
            2036              52     224.713E-03     230.166E-03
            2033              52     224.713E-03     230.166E-03
            2036              53     223.189E-03     229.715E-03
            2039              53     223.189E-03     229.715E-03
            2039              54     250.047E-03     251.466E-03
            2042              54     250.047E-03     251.466E-03
            2042              55     289.404E-03     288.582E-03
            2045              55     289.404E-03     288.582E-03
            2048              56     342.379E-03     341.215E-03
            2045              56     342.379E-03     341.215E-03
            2051              57     419.655E-03     411.375E-03
            2048              57     419.655E-03     411.375E-03
            2054              58     375.266E-03     356.416E-03
            2051              58     375.266E-03     356.416E-03
            2057              59     327.445E-03     326.026E-03
            2054              59     327.445E-03     326.026E-03
            2057              60     397.388E-03     407.697E-03
            2060              60     397.388E-03     407.697E-03
            2060              61     456.796E-03     456.850E-03
            2063              61     456.796E-03     456.850E-03
            2063              62     523.865E-03     524.620E-03
            2066              62     523.865E-03     524.620E-03
            2069              63     608.294E-03     592.436E-03
            2066              63     608.294E-03     592.436E-03
            2069              64     555.050E-03     512.223E-03
            2072              64     555.050E-03     512.223E-03
            2075              65     504.211E-03     492.425E-03
            2072              65     504.211E-03     492.425E-03
            2075              66     587.394E-03     599.799E-03
            2078              66     587.394E-03     599.799E-03
            2078              67     653.742E-03     651.729E-03
            2081              67     653.742E-03     651.729E-03
            2081              68     713.565E-03     708.988E-03
            2084              68     713.565E-03     708.988E-03
            2084              69     782.241E-03     781.287E-03
            2087              69     782.241E-03     781.287E-03
            2087              70     865.726E-03     840.648E-03
            2090              70     865.726E-03     840.648E-03
            2090              71     802.017E-03     734.794E-03
            2093              71     802.017E-03     734.794E-03
            2096              72     745.310E-03     724.001E-03
            2093              72     745.310E-03     724.001E-03
            2096              73     835.569E-03     849.548E-03
            2099              73     835.569E-03     849.548E-03
            2102              74     904.302E-03     900.569E-03
            2099              74     904.302E-03     900.569E-03
            2102              75     965.464E-03     959.188E-03
            2105              75     965.464E-03     959.188E-03
            2105              76         1.03544         1.03579
            2108              76         1.03544         1.03579
            2111              77         1.11769         1.08407
            2108              77         1.11769         1.08407
            2111              78         1.05138     964.976E-03
            2114              78         1.05138     964.976E-03
            2114              79         1.00181     974.537E-03
            2117              79         1.00181     974.537E-03
            2120              80         1.09847         1.11682
            2117              80         1.09847         1.11682
            2123              81         1.16503         1.16286
            2120              81         1.16503         1.16286
            2123              82         1.23933         1.24705
            2126              82         1.23933         1.24705
            2126              83         1.32211         1.28333
            2129              83         1.32211         1.28333
             966             147     10.4229E-15     11.8349E-15
             963             147     10.4229E-15     11.8349E-15
             969             148     6.07342E-15     6.82016E-15
             966             148     6.07342E-15     6.82016E-15
             972             149     2.49679E-15     1.67088E-15
             969             149     2.49679E-15     1.67088E-15
             972             150     19.0873E-15     18.7149E-15
             975             150     19.0873E-15     18.7149E-15
             975             151     26.9501E-15     28.2831E-15
             978             151     26.9501E-15     28.2831E-15
             841             176     10.1893E-15     11.0984E-15
             844             176     10.1893E-15     11.0984E-15
             847             177     9.60894E-15     11.8882E-15
             844             177     9.60894E-15     11.8882E-15
             847             178     10.1952E-15     11.1562E-15
             850             178     10.1952E-15     11.1562E-15
             853             179     11.9537E-15     11.4893E-15
             850             179     11.9537E-15     11.4893E-15
             856             180     23.3429E-15     23.3053E-15
             853             180     23.3429E-15     23.3053E-15
             859             194     196.780E-03     197.016E-03
             862             194     196.780E-03     197.016E-03
             865             195     224.713E-03     230.166E-03
             862             195     224.713E-03     230.166E-03
             865             196     223.189E-03     229.715E-03
             868             196     223.189E-03     229.715E-03
             868             197     250.047E-03     251.466E-03
             871             197     250.047E-03     251.466E-03
             871             198     289.404E-03     288.582E-03
             874             198     289.404E-03     288.582E-03
             874             199     342.379E-03     341.215E-03
             877             199     342.379E-03     341.215E-03
             877             200     419.655E-03     411.375E-03
             880             200     419.655E-03     411.375E-03
             883             201     375.266E-03     356.416E-03
             880             201     375.266E-03     356.416E-03
             886             202     327.445E-03     326.026E-03
             883             202     327.445E-03     326.026E-03
             886             203     397.388E-03     407.697E-03
             889             203     397.388E-03     407.697E-03
             892             204     456.796E-03     456.850E-03
             889             204     456.796E-03     456.850E-03
             892             205     523.865E-03     524.620E-03
             895             205     523.865E-03     524.620E-03
             895             206     608.294E-03     592.436E-03
             898             206     608.294E-03     592.436E-03
             898             207     555.050E-03     512.223E-03
             901             207     555.050E-03     512.223E-03
             901             208     504.211E-03     492.425E-03
             904             208     504.211E-03     492.425E-03
             904             209     587.394E-03     599.799E-03
             907             209     587.394E-03     599.799E-03
             910             210     653.742E-03     651.729E-03
             907             210     653.742E-03     651.729E-03
             913             211     713.565E-03     708.988E-03
             910             211     713.565E-03     708.988E-03
             913             212     782.241E-03     781.287E-03
             916             212     782.241E-03     781.287E-03
             916             213     865.726E-03     840.648E-03
             919             213     865.726E-03     840.648E-03
             919             214     802.017E-03     734.794E-03
             922             214     802.017E-03     734.794E-03
             925             215     745.310E-03     724.001E-03
             922             215     745.310E-03     724.001E-03
             928             216     835.569E-03     849.548E-03
             925             216     835.569E-03     849.548E-03
             931             217     904.302E-03     900.569E-03
             928             217     904.302E-03     900.569E-03
             934             218     965.464E-03     959.188E-03
             931             218     965.464E-03     959.188E-03
             934             219         1.03544         1.03579
             937             219         1.03544         1.03579
             937             220         1.11769         1.08407
             940             220         1.11769         1.08407
             943             221         1.05138     964.976E-03
             940             221         1.05138     964.976E-03
             946             222         1.00181     974.537E-03
             943             222         1.00181     974.537E-03
             946             223         1.09847         1.11682
             949             223         1.09847         1.11682
             949             224         1.16503         1.16286
             952             224         1.16503         1.16286
             955             225         1.23933         1.24705
             952             225         1.23933         1.24705
             958             226         1.32211         1.28333
             955             226         1.32211         1.28333
             842             264     81.2615E-03     80.6595E-03
            2030             264     81.2615E-03     80.6595E-03
             841             264     81.2615E-03     80.6595E-03
            2029             264     81.2615E-03     80.6595E-03
             843             265     81.0512E-03     80.4477E-03
            2029             265     81.0512E-03     80.4477E-03
            2028             265     81.0512E-03     80.4477E-03
             842             265     81.0512E-03     80.4477E-03
             846             266     1.74450E-15     1.66994E-15
             964             266     1.74450E-15     1.66994E-15
             961             266     1.74450E-15     1.66994E-15
             843             266     1.74450E-15     1.66994E-15
             964             267     9.20870E-15     9.11999E-15
             846             267     9.20870E-15     9.11999E-15
             967             267     9.20870E-15     9.11999E-15
             849             267     9.20870E-15     9.11999E-15
             967             268     17.3416E-15     17.2603E-15
             852             268     17.3416E-15     17.2603E-15
             970             268     17.3416E-15     17.2603E-15
             849             268     17.3416E-15     17.2603E-15
             855             269     9.79924E-15     9.65128E-15
             973             269     9.79924E-15     9.65128E-15
             970             269     9.79924E-15     9.65128E-15
             852             269     9.79924E-15     9.65128E-15
             858             270     22.2115E-15     22.1082E-15
             855             270     22.2115E-15     22.1082E-15
             976             270     22.2115E-15     22.1082E-15
             973             270     22.2115E-15     22.1082E-15
             858             271     32.0662E-15     31.7971E-15
             857             271     32.0662E-15     31.7971E-15
             856             272     31.7654E-15     32.0941E-15
             857             272     31.7654E-15     32.0941E-15
             860             273     81.2615E-03     80.6595E-03
             962             273     81.2615E-03     80.6595E-03
             963             273     81.2615E-03     80.6595E-03
             859             273     81.2615E-03     80.6595E-03
             962             274     81.0512E-03     80.4477E-03
             861             274     81.0512E-03     80.4477E-03
             860             274     81.0512E-03     80.4477E-03
             961             274     81.0512E-03     80.4477E-03
             864             275     241.944E-03     239.287E-03
            2028             275     241.944E-03     239.287E-03
             861             275     241.944E-03     239.287E-03
            2031             275     241.944E-03     239.287E-03
             864             276     331.217E-03     325.172E-03
            2031             276     331.217E-03     325.172E-03
             867             276     331.217E-03     325.172E-03
            2034             276     331.217E-03     325.172E-03
            2034             277     349.132E-03     341.959E-03
            2037             277     349.132E-03     341.959E-03
             867             277     349.132E-03     341.959E-03
             870             277     349.132E-03     341.959E-03
            2040             278     361.449E-03     357.739E-03
             873             278     361.449E-03     357.739E-03
            2037             278     361.449E-03     357.739E-03
             870             278     361.449E-03     357.739E-03
             876             279     364.179E-03     367.182E-03
             873             279     364.179E-03     367.182E-03
            2043             279     364.179E-03     367.182E-03
            2040             279     364.179E-03     367.182E-03
             876             280     349.978E-03     358.138E-03
             879             280     349.978E-03     358.138E-03
            2043             280     349.978E-03     358.138E-03
            2046             280     349.978E-03     358.138E-03
            2049             281     318.308E-03     324.562E-03
             882             281     318.308E-03     324.562E-03
            2046             281     318.308E-03     324.562E-03
             879             281     318.308E-03     324.562E-03
             882             282     326.248E-03     322.850E-03
            2052             282     326.248E-03     322.850E-03
            2049             282     326.248E-03     322.850E-03
             885             282     326.248E-03     322.850E-03
             888             283     352.054E-03     338.028E-03
             885             283     352.054E-03     338.028E-03
            2052             283     352.054E-03     338.028E-03
            2055             283     352.054E-03     338.028E-03
            2055             284     359.767E-03     345.791E-03
             891             284     359.767E-03     345.791E-03
            2058             284     359.767E-03     345.791E-03
             888             284     359.767E-03     345.791E-03
             891             285     370.846E-03     372.538E-03
            2058             285     370.846E-03     372.538E-03
             894             285     370.846E-03     372.538E-03
            2061             285     370.846E-03     372.538E-03
             897             286     357.006E-03     373.028E-03
            2061             286     357.006E-03     373.028E-03
            2064             286     357.006E-03     373.028E-03
             894             286     357.006E-03     373.028E-03
            2064             287     316.896E-03     329.328E-03
            2067             287     316.896E-03     329.328E-03
             900             287     316.896E-03     329.328E-03
             897             287     316.896E-03     329.328E-03
             903             288     333.662E-03     327.645E-03
            2067             288     333.662E-03     327.645E-03
             900             288     333.662E-03     327.645E-03
            2070             288     333.662E-03     327.645E-03
             903             289     369.718E-03     344.496E-03
             906             289     369.718E-03     344.496E-03
            2070             289     369.718E-03     344.496E-03
            2073             289     369.718E-03     344.496E-03
             909             290     369.615E-03     343.389E-03
            2076             290     369.615E-03     343.389E-03
             906             290     369.615E-03     343.389E-03
            2073             290     369.615E-03     343.389E-03
            2079             291     379.939E-03     370.480E-03
            2076             291     379.939E-03     370.480E-03
             909             291     379.939E-03     370.480E-03
             912             291     379.939E-03     370.480E-03
             915             292     389.912E-03     404.662E-03
            2082             292     389.912E-03     404.662E-03
            2079             292     389.912E-03     404.662E-03
             912             292     389.912E-03     404.662E-03
            2082             293     372.672E-03     402.386E-03
             918             293     372.672E-03     402.386E-03
            2085             293     372.672E-03     402.386E-03
             915             293     372.672E-03     402.386E-03
             918             294     322.887E-03     342.331E-03
            2085             294     322.887E-03     342.331E-03
            2088             294     322.887E-03     342.331E-03
             921             294     322.887E-03     342.331E-03
            2088             295     351.537E-03     342.133E-03
            2091             295     351.537E-03     342.133E-03
             921             295     351.537E-03     342.133E-03
             924             295     351.537E-03     342.133E-03
             924             296     398.135E-03     363.053E-03
            2094             296     398.135E-03     363.053E-03
            2091             296     398.135E-03     363.053E-03
             927             296     398.135E-03     363.053E-03
             927             297     390.113E-03     356.271E-03
            2097             297     390.113E-03     356.271E-03
             930             297     390.113E-03     356.271E-03
            2094             297     390.113E-03     356.271E-03
             933             298     399.818E-03     389.528E-03
            2100             298     399.818E-03     389.528E-03
            2097             298     399.818E-03     389.528E-03
             930             298     399.818E-03     389.528E-03
             933             299     413.008E-03     434.364E-03
            2103             299     413.008E-03     434.364E-03
            2100             299     413.008E-03     434.364E-03
             936             299     413.008E-03     434.364E-03
             939             300     394.118E-03     434.139E-03
            2103             300     394.118E-03     434.139E-03
            2106             300     394.118E-03     434.139E-03
             936             300     394.118E-03     434.139E-03
            2106             301     336.625E-03     360.270E-03
             942             301     336.625E-03     360.270E-03
            2109             301     336.625E-03     360.270E-03
             939             301     336.625E-03     360.270E-03
            2112             302     380.307E-03     367.826E-03
             945             302     380.307E-03     367.826E-03
             942             302     380.307E-03     367.826E-03
            2109             302     380.307E-03     367.826E-03
            2112             303     434.315E-03     395.094E-03
             945             303     434.315E-03     395.094E-03
            2115             303     434.315E-03     395.094E-03
             948             303     434.315E-03     395.094E-03
             951             304     420.018E-03     390.628E-03
            2115             304     420.018E-03     390.628E-03
            2118             304     420.018E-03     390.628E-03
             948             304     420.018E-03     390.628E-03
            2121             305     434.397E-03     449.559E-03
             954             305     434.397E-03     449.559E-03
             951             305     434.397E-03     449.559E-03
            2118             305     434.397E-03     449.559E-03
            2124             306     413.158E-03     455.816E-03
             954             306     413.158E-03     455.816E-03
             957             306     413.158E-03     455.816E-03
            2121             306     413.158E-03     455.816E-03
            2124             307     351.020E-03     374.349E-03
             957             307     351.020E-03     374.349E-03
            2127             307     351.020E-03     374.349E-03
             960             307     351.020E-03     374.349E-03
             959             308     513.040E-03     500.648E-03
            2226             308     513.040E-03     500.648E-03
             960             308     513.040E-03     500.648E-03
            2227             308     513.040E-03     500.648E-03
            2226             309     997.238E-03     960.161E-03
             958             309     997.238E-03     960.161E-03
             959             309     997.238E-03     960.161E-03
            2225             309     997.238E-03     960.161E-03
             978             310     35.6908E-15     36.6677E-15
             977             310     35.6908E-15     36.6677E-15
             976             311     47.4589E-15     47.7409E-15
             977             311     47.4589E-15     47.7409E-15
            2128             312     513.040E-03     500.648E-03
            2127             312     513.040E-03     500.648E-03
             979             312     513.040E-03     500.648E-03
             980             312     513.040E-03     500.648E-03
             980             313     997.238E-03     960.161E-03
             981             313     997.238E-03     960.161E-03
            2129             313     997.238E-03     960.161E-03
            2128             313     997.238E-03     960.161E-03
             981             314         1.18462         1.14444
             984             314         1.18462         1.14444
             984             315         1.26933         1.25003
             987             315         1.26933         1.25003
             990             316         1.39546         1.43115
             987             316         1.39546         1.43115
             990             317         1.47788         1.45096
             993             317         1.47788         1.45096
            2838             318         1.23360         1.20160
            2839             318         1.23360         1.20160
             993             318         1.23360         1.20160
             992             318         1.23360         1.20160
            2837             319     706.118E-03     695.740E-03
             992             319     706.118E-03     695.740E-03
            2838             319     706.118E-03     695.740E-03
             991             319     706.118E-03     695.740E-03
             991             320     367.280E-03     380.012E-03
             988             320     367.280E-03     380.012E-03
            2236             320     367.280E-03     380.012E-03
            2239             320     367.280E-03     380.012E-03
            2233             321     436.785E-03     448.768E-03
             985             321     436.785E-03     448.768E-03
            2236             321     436.785E-03     448.768E-03
             988             321     436.785E-03     448.768E-03
             985             322     486.473E-03     473.566E-03
            2233             322     486.473E-03     473.566E-03
             982             322     486.473E-03     473.566E-03
            2230             322     486.473E-03     473.566E-03
             982             323     395.404E-03     382.330E-03
            2230             323     395.404E-03     382.330E-03
             979             323     395.404E-03     382.330E-03
            2227             323     395.404E-03     382.330E-03
            2237             389         1.47788         1.45096
            2234             389         1.47788         1.45096
            2234             390         1.39546         1.43115
            2231             390         1.39546         1.43115
            2228             391         1.26933         1.25003
            2231             391         1.26933         1.25003
            2225             392         1.18462         1.14444
            2228             392         1.18462         1.14444
            2842             393         1.40523         1.40311
            2839             393         1.40523         1.40311
            2845             394         1.34890         1.32313
            2842             394         1.34890         1.32313
            2848             395         1.37169         1.37507
            2845             395         1.37169         1.37507
            2851             396         1.10353         1.10719
            2848             396         1.10353         1.10719
            2133             420         1.40523         1.40311
            2130             420         1.40523         1.40311
            2136             421         1.34890         1.32313
            2133             421         1.34890         1.32313
            2136             422         1.37169         1.37507
            2139             422         1.37169         1.37507
            2142             423         1.10353         1.10719
            2139             423         1.10353         1.10719
            2130             432         1.23360         1.20160
            2237             432         1.23360         1.20160
            2238             432         1.23360         1.20160
            2131             432         1.23360         1.20160
            2131             433     706.118E-03     695.740E-03
            2132             433     706.118E-03     695.740E-03
            2239             433     706.118E-03     695.740E-03
            2238             433     706.118E-03     695.740E-03
            2837             434     786.476E-03     786.654E-03
            2840             434     786.476E-03     786.654E-03
            2135             434     786.476E-03     786.654E-03
            2132             434     786.476E-03     786.654E-03
            2843             435     803.358E-03     801.525E-03
            2840             435     803.358E-03     801.525E-03
            2135             435     803.358E-03     801.525E-03
            2138             435     803.358E-03     801.525E-03
            2843             436     752.405E-03     749.706E-03
            2846             436     752.405E-03     749.706E-03
            2141             436     752.405E-03     749.706E-03
            2138             436     752.405E-03     749.706E-03
            2141             437     860.559E-03     863.082E-03
            2846             437     860.559E-03     863.082E-03
            2849             437     860.559E-03     863.082E-03
            2144             437     860.559E-03     863.082E-03
            2143             438     868.374E-03     862.348E-03
            2144             438     868.374E-03     862.348E-03
            2883             438     868.374E-03     862.348E-03
            2884             438     868.374E-03     862.348E-03
            2882             439         1.00539     978.829E-03
            2883             439         1.00539     978.829E-03
            2142             439         1.00539     978.829E-03
            2143             439         1.00539     978.829E-03
            2882             444         1.12397         1.12706
            2885             444         1.12397         1.12706
            2888             445     884.797E-03     888.793E-03
            2885             445     884.797E-03     888.793E-03
            2888             446     927.902E-03     894.609E-03
            2891             446     927.902E-03     894.609E-03
            2894             447         1.00970     989.688E-03
            2891             447         1.00970     989.688E-03
            2897             448     824.414E-03     821.714E-03
            2894             448     824.414E-03     821.714E-03
            2897             449     697.722E-03     696.149E-03
            2900             449     697.722E-03     696.149E-03
            2900             450     604.543E-03     608.361E-03
            2903             450     604.543E-03     608.361E-03
            2906             451     542.374E-03     558.159E-03
            2903             451     542.374E-03     558.159E-03
            2906             452     548.117E-03     560.944E-03
            2909             452     548.117E-03     560.944E-03
            2909             453     479.915E-03     480.359E-03
            2912             453     479.915E-03     480.359E-03
            2240             468     868.374E-03     862.348E-03
            2849             468     868.374E-03     862.348E-03
            2850             468     868.374E-03     862.348E-03
            2241             468     868.374E-03     862.348E-03
            2242             469         1.00539     978.829E-03
            2851             469         1.00539     978.829E-03
            2241             469         1.00539     978.829E-03
            2850             469         1.00539     978.829E-03
            2242             470         1.12397         1.12706
            2245             470         1.12397         1.12706
            2245             471     884.797E-03     888.793E-03
            2248             471     884.797E-03     888.793E-03
            2251             472     927.902E-03     894.609E-03
            2248             472     927.902E-03     894.609E-03
            2254             473         1.00970     989.688E-03
            2251             473         1.00970     989.688E-03
            2254             474     824.414E-03     821.714E-03
            2257             474     824.414E-03     821.714E-03
            2257             475     697.722E-03     696.149E-03
            2260             475     697.722E-03     696.149E-03
            2260             476     604.543E-03     608.361E-03
            2263             476     604.543E-03     608.361E-03
            2266             477     542.374E-03     558.159E-03
            2263             477     542.374E-03     558.159E-03
            2266             478     548.117E-03     560.944E-03
            2269             478     548.117E-03     560.944E-03
            2269             479     479.915E-03     480.359E-03
            2272             479     479.915E-03     480.359E-03
            2820             480     197.988E-03     196.521E-03
            2271             480     197.988E-03     196.521E-03
            2821             480     197.988E-03     196.521E-03
            2272             480     197.988E-03     196.521E-03
            2271             481     197.499E-03     196.028E-03
            2820             481     197.499E-03     196.028E-03
            2819             481     197.499E-03     196.028E-03
            2270             481     197.499E-03     196.028E-03
            2270             482     589.807E-03     583.545E-03
            2914             482     589.807E-03     583.545E-03
            2267             482     589.807E-03     583.545E-03
            2911             482     589.807E-03     583.545E-03
            2267             483     806.905E-03     792.770E-03
            2264             483     806.905E-03     792.770E-03
            2908             483     806.905E-03     792.770E-03
            2911             483     806.905E-03     792.770E-03
            2908             484     849.927E-03     832.964E-03
            2261             484     849.927E-03     832.964E-03
            2264             484     849.927E-03     832.964E-03
            2905             484     849.927E-03     832.964E-03
            2905             485     880.407E-03     871.523E-03
            2261             485     880.407E-03     871.523E-03
            2902             485     880.407E-03     871.523E-03
            2258             485     880.407E-03     871.523E-03
            2902             486     886.478E-03     893.686E-03
            2258             486     886.478E-03     893.686E-03
            2255             486     886.478E-03     893.686E-03
            2899             486     886.478E-03     893.686E-03
            2899             487     850.692E-03     870.045E-03
            2252             487     850.692E-03     870.045E-03
            2255             487     850.692E-03     870.045E-03
            2896             487     850.692E-03     870.045E-03
            2893             488     774.693E-03     789.349E-03
            2896             488     774.693E-03     789.349E-03
            2249             488     774.693E-03     789.349E-03
            2252             488     774.693E-03     789.349E-03
            2890             489     804.096E-03     811.522E-03
            2893             489     804.096E-03     811.522E-03
            2249             489     804.096E-03     811.522E-03
            2246             489     804.096E-03     811.522E-03
            2243             490     827.667E-03     830.539E-03
            2246             490     827.667E-03     830.539E-03
            2887             490     827.667E-03     830.539E-03
            2890             490     827.667E-03     830.539E-03
            2887             491     741.295E-03     737.819E-03
            2240             491     741.295E-03     737.819E-03
            2243             491     741.295E-03     737.819E-03
            2884             491     741.295E-03     737.819E-03
            2824             562     8.07411E-15     8.78348E-15
            2821             562     8.07411E-15     8.78348E-15
            2824             563     3.28179E-15     3.98745E-15
            2827             563     3.28179E-15     3.98745E-15
            2827             564     6.21803E-15     5.61205E-15
            2830             564     6.21803E-15     5.61205E-15
            2833             565     8.53096E-15     7.99361E-15
            2830             565     8.53096E-15     7.99361E-15
            2836             566     4.14433E-15     3.77005E-15
            2833             566     4.14433E-15     3.77005E-15
            2913             587     197.988E-03     196.521E-03
            2912             587     197.988E-03     196.521E-03
            2747             587     197.988E-03     196.521E-03
            2746             587     197.988E-03     196.521E-03
            2914             588     197.499E-03     196.028E-03
            2748             588     197.499E-03     196.028E-03
            2913             588     197.499E-03     196.028E-03
            2747             588     197.499E-03     196.028E-03
            2748             589     5.50266E-15     5.51781E-15
            2822             589     5.50266E-15     5.51781E-15
            2751             589     5.50266E-15     5.51781E-15
            2819             589     5.50266E-15     5.51781E-15
            2751             590     10.2882E-15     10.1724E-15
            2754             590     10.2882E-15     10.1724E-15
            2825             590     10.2882E-15     10.1724E-15
            2822             590     10.2882E-15     10.1724E-15
            2825             591     8.51866E-15     8.32258E-15
            2828             591     8.51866E-15     8.32258E-15
            2754             591     8.51866E-15     8.32258E-15
            2757             591     8.51866E-15     8.32258E-15
            2828             592     6.44927E-15     6.75945E-15
            2760             592     6.44927E-15     6.75945E-15
            2831             592     6.44927E-15     6.75945E-15
            2757             592     6.44927E-15     6.75945E-15
            2831             593     9.87241E-15     10.3509E-15
            2760             593     9.87241E-15     10.3509E-15
            2834             593     9.87241E-15     10.3509E-15
            2763             593     9.87241E-15     10.3509E-15
            2762             594     15.2600E-15     15.4668E-15
            2763             594     15.2600E-15     15.4668E-15
            2762             595     17.4079E-15     17.0119E-15
            2761             595     17.4079E-15     17.0119E-15
            2758             596     10.6404E-15     10.7179E-15
            2761             596     10.6404E-15     10.7179E-15
            2758             597     4.20768E-15     5.25184E-15
            2755             597     4.20768E-15     5.25184E-15
            2752             598     5.79909E-15     6.22545E-15
            2755             598     5.79909E-15     6.22545E-15
            2752             599     8.02907E-15     7.94009E-15
            2749             599     8.02907E-15     7.94009E-15
            2746             600     5.66434E-15     6.31993E-15
            2749             600     5.66434E-15     6.31993E-15
            2836             605     10.2178E-15     9.69999E-15
            2835             605     10.2178E-15     9.69999E-15
            2834             606     15.5344E-15     15.4660E-15
            2835             606     15.5344E-15     15.4660E-15
             844            1357     5.91555E-15     6.25279E-15
             841            1357     5.91555E-15     6.25279E-15
             842            1357     5.91555E-15     6.25279E-15
             845            1357     5.91555E-15     6.25279E-15
             846            1358     1.40498E-15     1.25492E-15
             843            1358     1.40498E-15     1.25492E-15
             842            1358     1.40498E-15     1.25492E-15
             845            1358     1.40498E-15     1.25492E-15
             844            1359     11.3164E-15     13.1824E-15
             847            1359     11.3164E-15     13.1824E-15
             848            1359     11.3164E-15     13.1824E-15
             845            1359     11.3164E-15     13.1824E-15
             845            1360     6.98309E-15     7.70945E-15
             849            1360     6.98309E-15     7.70945E-15
             848            1360     6.98309E-15     7.70945E-15
             846            1360     6.98309E-15     7.70945E-15
             850            1361     17.7755E-15     19.3691E-15
             848            1361     17.7755E-15     19.3691E-15
             851            1361     17.7755E-15     19.3691E-15
             847            1361     17.7755E-15     19.3691E-15
             849            1362     13.0026E-15     14.3157E-15
             848            1362     13.0026E-15     14.3157E-15
             852            1362     13.0026E-15     14.3157E-15
             851            1362     13.0026E-15     14.3157E-15
             853            1363     13.0596E-15     12.9515E-15
             854            1363     13.0596E-15     12.9515E-15
             851            1363     13.0596E-15     12.9515E-15
             850            1363     13.0596E-15     12.9515E-15
             854            1364     7.79168E-15     8.04900E-15
             852            1364     7.79168E-15     8.04900E-15
             851            1364     7.79168E-15     8.04900E-15
             855            1364     7.79168E-15     8.04900E-15
             857            1365     17.6882E-15     17.4571E-15
             853            1365     17.6882E-15     17.4571E-15
             854            1365     17.6882E-15     17.4571E-15
             856            1365     17.6882E-15     17.4571E-15
             858            1366     17.2431E-15     16.7792E-15
             854            1366     17.2431E-15     16.7792E-15
             857            1366     17.2431E-15     16.7792E-15
             855            1366     17.2431E-15     16.7792E-15
             859            1367     216.370E-03     214.958E-03
             860            1367     216.370E-03     214.958E-03
             862            1367     216.370E-03     214.958E-03
             863            1367     216.370E-03     214.958E-03
             863            1368     238.952E-03     236.094E-03
             861            1368     238.952E-03     236.094E-03
             864            1368     238.952E-03     236.094E-03
             860            1368     238.952E-03     236.094E-03
             866            1369     270.312E-03     270.096E-03
             865            1369     270.312E-03     270.096E-03
             863            1369     270.312E-03     270.096E-03
             862            1369     270.312E-03     270.096E-03
             863            1370     323.565E-03     317.599E-03
             867            1370     323.565E-03     317.599E-03
             864            1370     323.565E-03     317.599E-03
             866            1370     323.565E-03     317.599E-03
             865            1371     272.226E-03     273.938E-03
             868            1371     272.226E-03     273.938E-03
             869            1371     272.226E-03     273.938E-03
             866            1371     272.226E-03     273.938E-03
             867            1372     335.197E-03     330.059E-03
             870            1372     335.197E-03     330.059E-03
             866            1372     335.197E-03     330.059E-03
             869            1372     335.197E-03     330.059E-03
             871            1373     285.438E-03     286.904E-03
             872            1373     285.438E-03     286.904E-03
             868            1373     285.438E-03     286.904E-03
             869            1373     285.438E-03     286.904E-03
             872            1374     341.140E-03     340.041E-03
             870            1374     341.140E-03     340.041E-03
             869            1374     341.140E-03     340.041E-03
             873            1374     341.140E-03     340.041E-03
             874            1375     310.450E-03     310.458E-03
             871            1375     310.450E-03     310.458E-03
             875            1375     310.450E-03     310.458E-03
             872            1375     310.450E-03     310.458E-03
             873            1376     347.837E-03     349.759E-03
             876            1376     347.837E-03     349.759E-03
             875            1376     347.837E-03     349.759E-03
             872            1376     347.837E-03     349.759E-03
             877            1377     348.850E-03     349.711E-03
             878            1377     348.850E-03     349.711E-03
             874            1377     348.850E-03     349.711E-03
             875            1377     348.850E-03     349.711E-03
             875            1378     352.649E-03     358.172E-03
             876            1378     352.649E-03     358.172E-03
             878            1378     352.649E-03     358.172E-03
             879            1378     352.649E-03     358.172E-03
             878            1379     386.802E-03     384.504E-03
             881            1379     386.802E-03     384.504E-03
             880            1379     386.802E-03     384.504E-03
             877            1379     386.802E-03     384.504E-03
             881            1380     336.128E-03     341.098E-03
             878            1380     336.128E-03     341.098E-03
             879            1380     336.128E-03     341.098E-03
             882            1380     336.128E-03     341.098E-03
             884            1381     361.977E-03     347.178E-03
             881            1381     361.977E-03     347.178E-03
             883            1381     361.977E-03     347.178E-03
             880            1381     361.977E-03     347.178E-03
             881            1382     337.468E-03     330.395E-03
             882            1382     337.468E-03     330.395E-03
             885            1382     337.468E-03     330.395E-03
             884            1382     337.468E-03     330.395E-03
             887            1383     348.012E-03     339.633E-03
             883            1383     348.012E-03     339.633E-03
             886            1383     348.012E-03     339.633E-03
             884            1383     348.012E-03     339.633E-03
             885            1384     360.316E-03     345.634E-03
             887            1384     360.316E-03     345.634E-03
             888            1384     360.316E-03     345.634E-03
             884            1384     360.316E-03     345.634E-03
             887            1385     389.458E-03     395.305E-03
             889            1385     389.458E-03     395.305E-03
             890            1385     389.458E-03     395.305E-03
             886            1385     389.458E-03     395.305E-03
             890            1386     370.648E-03     364.353E-03
             887            1386     370.648E-03     364.353E-03
             891            1386     370.648E-03     364.353E-03
             888            1386     370.648E-03     364.353E-03
             889            1387     426.379E-03     430.379E-03
             892            1387     426.379E-03     430.379E-03
             890            1387     426.379E-03     430.379E-03
             893            1387     426.379E-03     430.379E-03
             890            1388     383.404E-03     388.223E-03
             894            1388     383.404E-03     388.223E-03
             893            1388     383.404E-03     388.223E-03
             891            1388     383.404E-03     388.223E-03
             895            1389     475.190E-03     481.000E-03
             896            1389     475.190E-03     481.000E-03
             893            1389     475.190E-03     481.000E-03
             892            1389     475.190E-03     481.000E-03
             897            1390     391.761E-03     405.204E-03
             893            1390     391.761E-03     405.204E-03
             896            1390     391.761E-03     405.204E-03
             894            1390     391.761E-03     405.204E-03
             899            1391     515.925E-03     510.622E-03
             896            1391     515.925E-03     510.622E-03
             898            1391     515.925E-03     510.622E-03
             895            1391     515.925E-03     510.622E-03
             900            1392     370.227E-03     379.068E-03
             896            1392     370.227E-03     379.068E-03
             897            1392     370.227E-03     379.068E-03
             899            1392     370.227E-03     379.068E-03
             898            1393     486.368E-03     452.301E-03
             901            1393     486.368E-03     452.301E-03
             899            1393     486.368E-03     452.301E-03
             902            1393     486.368E-03     452.301E-03
             902            1394     375.674E-03     360.013E-03
             899            1394     375.674E-03     360.013E-03
             903            1394     375.674E-03     360.013E-03
             900            1394     375.674E-03     360.013E-03
             904            1395     473.458E-03     454.465E-03
             901            1395     473.458E-03     454.465E-03
             905            1395     473.458E-03     454.465E-03
             902            1395     473.458E-03     454.465E-03
             903            1396     406.212E-03     380.501E-03
             906            1396     406.212E-03     380.501E-03
             902            1396     406.212E-03     380.501E-03
             905            1396     406.212E-03     380.501E-03
             907            1397     525.268E-03     533.210E-03
             904            1397     525.268E-03     533.210E-03
             908            1397     525.268E-03     533.210E-03
             905            1397     525.268E-03     533.210E-03
             906            1398     416.379E-03     405.005E-03
             905            1398     416.379E-03     405.005E-03
             909            1398     416.379E-03     405.005E-03
             908            1398     416.379E-03     405.005E-03
             908            1399     569.741E-03     574.328E-03
             910            1399     569.741E-03     574.328E-03
             911            1399     569.741E-03     574.328E-03
             907            1399     569.741E-03     574.328E-03
             912            1400     432.839E-03     433.704E-03
             911            1400     432.839E-03     433.704E-03
             909            1400     432.839E-03     433.704E-03
             908            1400     432.839E-03     433.704E-03
             914            1401     613.331E-03     615.455E-03
             910            1401     613.331E-03     615.455E-03
             911            1401     613.331E-03     615.455E-03
             913            1401     613.331E-03     615.455E-03
             914            1402     451.504E-03     463.292E-03
             915            1402     451.504E-03     463.292E-03
             912            1402     451.504E-03     463.292E-03
             911            1402     451.504E-03     463.292E-03
             916            1403     667.007E-03     675.184E-03
             917            1403     667.007E-03     675.184E-03
             913            1403     667.007E-03     675.184E-03
             914            1403     667.007E-03     675.184E-03
             917            1404     462.222E-03     485.734E-03
             918            1404     462.222E-03     485.734E-03
             915            1404     462.222E-03     485.734E-03
             914            1404     462.222E-03     485.734E-03
             916            1405     704.388E-03     692.343E-03
             919            1405     704.388E-03     692.343E-03
             917            1405     704.388E-03     692.343E-03
             920            1405     704.388E-03     692.343E-03
             917            1406     432.968E-03     443.184E-03
             918            1406     432.968E-03     443.184E-03
             921            1406     432.968E-03     443.184E-03
             920            1406     432.968E-03     443.184E-03
             920            1407     665.036E-03     609.187E-03
             919            1407     665.036E-03     609.187E-03
             922            1407     665.036E-03     609.187E-03
             923            1407     665.036E-03     609.187E-03
             924            1408     439.797E-03     412.857E-03
             921            1408     439.797E-03     412.857E-03
             923            1408     439.797E-03     412.857E-03
             920            1408     439.797E-03     412.857E-03
             922            1409     652.348E-03     624.179E-03
             926            1409     652.348E-03     624.179E-03
             923            1409     652.348E-03     624.179E-03
             925            1409     652.348E-03     624.179E-03
             923            1410     478.760E-03     443.705E-03
             924            1410     478.760E-03     443.705E-03
             927            1410     478.760E-03     443.705E-03
             926            1410     478.760E-03     443.705E-03
             926            1411     711.645E-03     723.614E-03
             929            1411     711.645E-03     723.614E-03
             925            1411     711.645E-03     723.614E-03
             928            1411     711.645E-03     723.614E-03
             927            1412     488.917E-03     476.976E-03
             926            1412     488.917E-03     476.976E-03
             929            1412     488.917E-03     476.976E-03
             930            1412     488.917E-03     476.976E-03
             932            1413     759.452E-03     765.998E-03
             929            1413     759.452E-03     765.998E-03
             928            1413     759.452E-03     765.998E-03
             931            1413     759.452E-03     765.998E-03
             929            1414     507.210E-03     510.478E-03
             932            1414     507.210E-03     510.478E-03
             933            1414     507.210E-03     510.478E-03
             930            1414     507.210E-03     510.478E-03
             932            1415     805.255E-03     809.121E-03
             934            1415     805.255E-03     809.121E-03
             935            1415     805.255E-03     809.121E-03
             931            1415     805.255E-03     809.121E-03
             932            1416     529.027E-03     546.709E-03
             933            1416     529.027E-03     546.709E-03
             935            1416     529.027E-03     546.709E-03
             936            1416     529.027E-03     546.709E-03
             937            1417     861.027E-03     873.545E-03
             938            1417     861.027E-03     873.545E-03
             934            1417     861.027E-03     873.545E-03
             935            1417     861.027E-03     873.545E-03
             935            1418     540.366E-03     572.720E-03
             938            1418     540.366E-03     572.720E-03
             936            1418     540.366E-03     572.720E-03
             939            1418     540.366E-03     572.720E-03
             940            1419     894.739E-03     875.993E-03
             938            1419     894.739E-03     875.993E-03
             941            1419     894.739E-03     875.993E-03
             937            1419     894.739E-03     875.993E-03
             939            1420     504.209E-03     514.092E-03
             938            1420     504.209E-03     514.092E-03
             942            1420     504.209E-03     514.092E-03
             941            1420     504.209E-03     514.092E-03
             943            1421     850.616E-03     776.928E-03
             941            1421     850.616E-03     776.928E-03
             940            1421     850.616E-03     776.928E-03
             944            1421     850.616E-03     776.928E-03
             945            1422     515.077E-03     478.353E-03
             942            1422     515.077E-03     478.353E-03
             941            1422     515.077E-03     478.353E-03
             944            1422     515.077E-03     478.353E-03
             947            1423     848.649E-03     816.323E-03
             944            1423     848.649E-03     816.323E-03
             943            1423     848.649E-03     816.323E-03
             946            1423     848.649E-03     816.323E-03
             945            1424     564.902E-03     526.601E-03
             948            1424     564.902E-03     526.601E-03
             947            1424     564.902E-03     526.601E-03
             944            1424     564.902E-03     526.601E-03
             946            1425     915.386E-03     936.097E-03
             949            1425     915.386E-03     936.097E-03
             947            1425     915.386E-03     936.097E-03
             950            1425     915.386E-03     936.097E-03
             948            1426     576.158E-03     573.000E-03
             951            1426     576.158E-03     573.000E-03
             947            1426     576.158E-03     573.000E-03
             950            1426     576.158E-03     573.000E-03
             952            1427     961.639E-03     977.362E-03
             950            1427     961.639E-03     977.362E-03
             949            1427     961.639E-03     977.362E-03
             953            1427     961.639E-03     977.362E-03
             950            1428     596.323E-03     620.711E-03
             954            1428     596.323E-03     620.711E-03
             953            1428     596.323E-03     620.711E-03
             951            1428     596.323E-03     620.711E-03
             955            1429         1.01941         1.04109
             953            1429         1.01941         1.04109
             952            1429         1.01941         1.04109
             956            1429         1.01941         1.04109
             954            1430     606.325E-03     645.471E-03
             956            1430     606.325E-03     645.471E-03
             953            1430     606.325E-03     645.471E-03
             957            1430     606.325E-03     645.471E-03
             959            1431         1.05037         1.02858
             958            1431         1.05037         1.02858
             956            1431         1.05037         1.02858
             955            1431         1.05037         1.02858
             960            1432     564.823E-03     574.087E-03
             957            1432     564.823E-03     574.087E-03
             959            1432     564.823E-03     574.087E-03
             956            1432     564.823E-03     574.087E-03
             962            1433     2.26973E-15     1.96348E-15
             961            1433     2.26973E-15     1.96348E-15
             964            1433     2.26973E-15     1.96348E-15
             965            1433     2.26973E-15     1.96348E-15
             966            1434     6.32072E-15     6.76228E-15
             963            1434     6.32072E-15     6.76228E-15
             962            1434     6.32072E-15     6.76228E-15
             965            1434     6.32072E-15     6.76228E-15
             965            1435     17.4958E-15     17.3319E-15
             964            1435     17.4958E-15     17.3319E-15
             967            1435     17.4958E-15     17.3319E-15
             968            1435     17.4958E-15     17.3319E-15
             969            1436     11.7950E-15     12.0931E-15
             966            1436     11.7950E-15     12.0931E-15
             965            1436     11.7950E-15     12.0931E-15
             968            1436     11.7950E-15     12.0931E-15
             968            1437     33.9680E-15     33.5633E-15
             967            1437     33.9680E-15     33.5633E-15
             971            1437     33.9680E-15     33.5633E-15
             970            1437     33.9680E-15     33.5633E-15
             969            1438     18.1995E-15     17.6630E-15
             972            1438     18.1995E-15     17.6630E-15
             968            1438     18.1995E-15     17.6630E-15
             971            1438     18.1995E-15     17.6630E-15
             971            1439     18.0341E-15     17.3929E-15
             970            1439     18.0341E-15     17.3929E-15
             973            1439     18.0341E-15     17.3929E-15
             974            1439     18.0341E-15     17.3929E-15
             972            1440     18.4874E-15     17.9412E-15
             975            1440     18.4874E-15     17.9412E-15
             971            1440     18.4874E-15     17.9412E-15
             974            1440     18.4874E-15     17.9412E-15
             974            1441     24.5958E-15     24.4838E-15
             977            1441     24.5958E-15     24.4838E-15
             976            1441     24.5958E-15     24.4838E-15
             973            1441     24.5958E-15     24.4838E-15
             975            1442     27.0858E-15     27.4919E-15
             978            1442     27.0858E-15     27.4919E-15
             977            1442     27.0858E-15     27.4919E-15
             974            1442     27.0858E-15     27.4919E-15
             979            1443     578.875E-03     554.378E-03
             980            1443     578.875E-03     554.378E-03
             982            1443     578.875E-03     554.378E-03
             983            1443     578.875E-03     554.378E-03
             983            1444     973.484E-03     935.434E-03
             980            1444     973.484E-03     935.434E-03
             984            1444     973.484E-03     935.434E-03
             981            1444     973.484E-03     935.434E-03
             983            1445     665.443E-03     652.370E-03
             986            1445     665.443E-03     652.370E-03
             982            1445     665.443E-03     652.370E-03
             985            1445     665.443E-03     652.370E-03
             984            1446         1.05687         1.04060
             987            1446         1.05687         1.04060
             983            1446         1.05687         1.04060
             986            1446         1.05687         1.04060
             985            1447     670.730E-03     707.737E-03
             986            1447     670.730E-03     707.737E-03
             988            1447     670.730E-03     707.737E-03
             989            1447     670.730E-03     707.737E-03
             990            1448         1.15007         1.19893
             986            1448         1.15007         1.19893
             987            1448         1.15007         1.19893
             989            1448         1.15007         1.19893
             988            1449     619.166E-03     634.444E-03
             992            1449     619.166E-03     634.444E-03
             991            1449     619.166E-03     634.444E-03
             989            1449     619.166E-03     634.444E-03
             992            1450         1.17447         1.16992
             990            1450         1.17447         1.16992
             993            1450         1.17447         1.16992
             989            1450         1.17447         1.16992
            2032            2310     238.952E-03     236.094E-03
            2029            2310     238.952E-03     236.094E-03
            2028            2310     238.952E-03     236.094E-03
            2031            2310     238.952E-03     236.094E-03
            2030            2311     216.370E-03     214.958E-03
            2033            2311     216.370E-03     214.958E-03
            2029            2311     216.370E-03     214.958E-03
            2032            2311     216.370E-03     214.958E-03
            2031            2312     323.565E-03     317.599E-03
            2034            2312     323.565E-03     317.599E-03
            2035            2312     323.565E-03     317.599E-03
            2032            2312     323.565E-03     317.599E-03
            2032            2313     270.312E-03     270.096E-03
            2033            2313     270.312E-03     270.096E-03
            2036            2313     270.312E-03     270.096E-03
            2035            2313     270.312E-03     270.096E-03
            2038            2314     335.197E-03     330.059E-03
            2035            2314     335.197E-03     330.059E-03
            2037            2314     335.197E-03     330.059E-03
            2034            2314     335.197E-03     330.059E-03
            2038            2315     272.226E-03     273.938E-03
            2036            2315     272.226E-03     273.938E-03
            2035            2315     272.226E-03     273.938E-03
            2039            2315     272.226E-03     273.938E-03
            2041            2316     341.140E-03     340.041E-03
            2040            2316     341.140E-03     340.041E-03
            2037            2316     341.140E-03     340.041E-03
            2038            2316     341.140E-03     340.041E-03
            2039            2317     285.438E-03     286.904E-03
            2038            2317     285.438E-03     286.904E-03
            2041            2317     285.438E-03     286.904E-03
            2042            2317     285.438E-03     286.904E-03
            2043            2318     347.837E-03     349.759E-03
            2041            2318     347.837E-03     349.759E-03
            2040            2318     347.837E-03     349.759E-03
            2044            2318     347.837E-03     349.759E-03
            2041            2319     310.450E-03     310.458E-03
            2042            2319     310.450E-03     310.458E-03
            2044            2319     310.450E-03     310.458E-03
            2045            2319     310.450E-03     310.458E-03
            2047            2320     352.649E-03     358.172E-03
            2046            2320     352.649E-03     358.172E-03
            2044            2320     352.649E-03     358.172E-03
            2043            2320     352.649E-03     358.172E-03
            2048            2321     348.850E-03     349.711E-03
            2045            2321     348.850E-03     349.711E-03
            2044            2321     348.850E-03     349.711E-03
            2047            2321     348.850E-03     349.711E-03
            2047            2322     336.128E-03     341.098E-03
            2050            2322     336.128E-03     341.098E-03
            2049            2322     336.128E-03     341.098E-03
            2046            2322     336.128E-03     341.098E-03
            2048            2323     386.802E-03     384.504E-03
            2050            2323     386.802E-03     384.504E-03
            2051            2323     386.802E-03     384.504E-03
            2047            2323     386.802E-03     384.504E-03
            2050            2324     337.468E-03     330.395E-03
            2053            2324     337.468E-03     330.395E-03
            2049            2324     337.468E-03     330.395E-03
            2052            2324     337.468E-03     330.395E-03
            2050            2325     361.977E-03     347.178E-03
            2054            2325     361.977E-03     347.178E-03
            2051            2325     361.977E-03     347.178E-03
            2053            2325     361.977E-03     347.178E-03
            2052            2326     360.316E-03     345.634E-03
            2053            2326     360.316E-03     345.634E-03
            2056            2326     360.316E-03     345.634E-03
            2055            2326     360.316E-03     345.634E-03
            2054            2327     348.012E-03     339.633E-03
            2053            2327     348.012E-03     339.633E-03
            2056            2327     348.012E-03     339.633E-03
            2057            2327     348.012E-03     339.633E-03
            2058            2328     370.648E-03     364.353E-03
            2059            2328     370.648E-03     364.353E-03
            2055            2328     370.648E-03     364.353E-03
            2056            2328     370.648E-03     364.353E-03
            2057            2329     389.458E-03     395.305E-03
            2060            2329     389.458E-03     395.305E-03
            2059            2329     389.458E-03     395.305E-03
            2056            2329     389.458E-03     395.305E-03
            2061            2330     383.404E-03     388.223E-03
            2062            2330     383.404E-03     388.223E-03
            2058            2330     383.404E-03     388.223E-03
            2059            2330     383.404E-03     388.223E-03
            2063            2331     426.379E-03     430.379E-03
            2059            2331     426.379E-03     430.379E-03
            2062            2331     426.379E-03     430.379E-03
            2060            2331     426.379E-03     430.379E-03
            2062            2332     391.761E-03     405.204E-03
            2061            2332     391.761E-03     405.204E-03
            2065            2332     391.761E-03     405.204E-03
            2064            2332     391.761E-03     405.204E-03
            2062            2333     475.190E-03     481.000E-03
            2066            2333     475.190E-03     481.000E-03
            2063            2333     475.190E-03     481.000E-03
            2065            2333     475.190E-03     481.000E-03
            2065            2334     370.227E-03     379.068E-03
            2068            2334     370.227E-03     379.068E-03
            2064            2334     370.227E-03     379.068E-03
            2067            2334     370.227E-03     379.068E-03
            2069            2335     515.925E-03     510.622E-03
            2065            2335     515.925E-03     510.622E-03
            2066            2335     515.925E-03     510.622E-03
            2068            2335     515.925E-03     510.622E-03
            2068            2336     375.674E-03     360.013E-03
            2071            2336     375.674E-03     360.013E-03
            2067            2336     375.674E-03     360.013E-03
            2070            2336     375.674E-03     360.013E-03
            2072            2337     486.368E-03     452.301E-03
            2068            2337     486.368E-03     452.301E-03
            2069            2337     486.368E-03     452.301E-03
            2071            2337     486.368E-03     452.301E-03
            2074            2338     406.212E-03     380.501E-03
            2073            2338     406.212E-03     380.501E-03
            2070            2338     406.212E-03     380.501E-03
            2071            2338     406.212E-03     380.501E-03
            2071            2339     473.458E-03     454.465E-03
            2074            2339     473.458E-03     454.465E-03
            2075            2339     473.458E-03     454.465E-03
            2072            2339     473.458E-03     454.465E-03
            2074            2340     416.379E-03     405.005E-03
            2076            2340     416.379E-03     405.005E-03
            2077            2340     416.379E-03     405.005E-03
            2073            2340     416.379E-03     405.005E-03
            2078            2341     525.268E-03     533.210E-03
            2075            2341     525.268E-03     533.210E-03
            2077            2341     525.268E-03     533.210E-03
            2074            2341     525.268E-03     533.210E-03
            2080            2342     432.839E-03     433.704E-03
            2076            2342     432.839E-03     433.704E-03
            2077            2342     432.839E-03     433.704E-03
            2079            2342     432.839E-03     433.704E-03
            2077            2343     569.741E-03     574.328E-03
            2078            2343     569.741E-03     574.328E-03
            2081            2343     569.741E-03     574.328E-03
            2080            2343     569.741E-03     574.328E-03
            2082            2344     451.504E-03     463.292E-03
            2079            2344     451.504E-03     463.292E-03
            2080            2344     451.504E-03     463.292E-03
            2083            2344     451.504E-03     463.292E-03
            2084            2345     613.331E-03     615.455E-03
            2081            2345     613.331E-03     615.455E-03
            2083            2345     613.331E-03     615.455E-03
            2080            2345     613.331E-03     615.455E-03
            2086            2346     462.222E-03     485.734E-03
            2085            2346     462.222E-03     485.734E-03
            2082            2346     462.222E-03     485.734E-03
            2083            2346     462.222E-03     485.734E-03
            2087            2347     667.007E-03     675.184E-03
            2086            2347     667.007E-03     675.184E-03
            2083            2347     667.007E-03     675.184E-03
            2084            2347     667.007E-03     675.184E-03
            2089            2348     432.968E-03     443.184E-03
            2085            2348     432.968E-03     443.184E-03
            2086            2348     432.968E-03     443.184E-03
            2088            2348     432.968E-03     443.184E-03
            2086            2349     704.388E-03     692.343E-03
            2087            2349     704.388E-03     692.343E-03
            2090            2349     704.388E-03     692.343E-03
            2089            2349     704.388E-03     692.343E-03
            2092            2350     439.797E-03     412.857E-03
            2089            2350     439.797E-03     412.857E-03
            2091            2350     439.797E-03     412.857E-03
            2088            2350     439.797E-03     412.857E-03
            2092            2351     665.036E-03     609.187E-03
            2093            2351     665.036E-03     609.187E-03
            2090            2351     665.036E-03     609.187E-03
            2089            2351     665.036E-03     609.187E-03
            2092            2352     478.760E-03     443.705E-03
            2094            2352     478.760E-03     443.705E-03
            2095            2352     478.760E-03     443.705E-03
            2091            2352     478.760E-03     443.705E-03
            2095            2353     652.348E-03     624.179E-03
            2096            2353     652.348E-03     624.179E-03
            2093            2353     652.348E-03     624.179E-03
            2092            2353     652.348E-03     624.179E-03
            2094            2354     488.917E-03     476.976E-03
            2095            2354     488.917E-03     476.976E-03
            2098            2354     488.917E-03     476.976E-03
            2097            2354     488.917E-03     476.976E-03
            2095            2355     711.645E-03     723.614E-03
            2098            2355     711.645E-03     723.614E-03
            2099            2355     711.645E-03     723.614E-03
            2096            2355     711.645E-03     723.614E-03
            2098            2356     507.210E-03     510.478E-03
            2101            2356     507.210E-03     510.478E-03
            2100            2356     507.210E-03     510.478E-03
            2097            2356     507.210E-03     510.478E-03
            2099            2357     759.452E-03     765.998E-03
            2101            2357     759.452E-03     765.998E-03
            2098            2357     759.452E-03     765.998E-03
            2102            2357     759.452E-03     765.998E-03
            2100            2358     529.027E-03     546.709E-03
            2104            2358     529.027E-03     546.709E-03
            2103            2358     529.027E-03     546.709E-03
            2101            2358     529.027E-03     546.709E-03
            2102            2359     805.255E-03     809.121E-03
            2101            2359     805.255E-03     809.121E-03
            2105            2359     805.255E-03     809.121E-03
            2104            2359     805.255E-03     809.121E-03
            2107            2360     540.366E-03     572.720E-03
            2103            2360     540.366E-03     572.720E-03
            2104            2360     540.366E-03     572.720E-03
            2106            2360     540.366E-03     572.720E-03
            2107            2361     861.027E-03     873.545E-03
            2108            2361     861.027E-03     873.545E-03
            2105            2361     861.027E-03     873.545E-03
            2104            2361     861.027E-03     873.545E-03
            2109            2362     504.209E-03     514.092E-03
            2106            2362     504.209E-03     514.092E-03
            2107            2362     504.209E-03     514.092E-03
            2110            2362     504.209E-03     514.092E-03
            2111            2363     894.739E-03     875.993E-03
            2107            2363     894.739E-03     875.993E-03
            2110            2363     894.739E-03     875.993E-03
            2108            2363     894.739E-03     875.993E-03
            2109            2364     515.077E-03     478.353E-03
            2113            2364     515.077E-03     478.353E-03
            2110            2364     515.077E-03     478.353E-03
            2112            2364     515.077E-03     478.353E-03
            2111            2365     850.616E-03     776.928E-03
            2113            2365     850.616E-03     776.928E-03
            2110            2365     850.616E-03     776.928E-03
            2114            2365     850.616E-03     776.928E-03
            2112            2366     564.902E-03     526.601E-03
            2116            2366     564.902E-03     526.601E-03
            2113            2366     564.902E-03     526.601E-03
            2115            2366     564.902E-03     526.601E-03
            2117            2367     848.649E-03     816.323E-03
            2116            2367     848.649E-03     816.323E-03
            2114            2367     848.649E-03     816.323E-03
            2113            2367     848.649E-03     816.323E-03
            2115            2368     576.158E-03     573.000E-03
            2116            2368     576.158E-03     573.000E-03
            2119            2368     576.158E-03     573.000E-03
            2118            2368     576.158E-03     573.000E-03
            2117            2369     915.386E-03     936.097E-03
            2116            2369     915.386E-03     936.097E-03
            2119            2369     915.386E-03     936.097E-03
            2120            2369     915.386E-03     936.097E-03
            2118            2370     596.323E-03     620.711E-03
            2119            2370     596.323E-03     620.711E-03
            2121            2370     596.323E-03     620.711E-03
            2122            2370     596.323E-03     620.711E-03
            2119            2371     961.639E-03     977.362E-03
            2123            2371     961.639E-03     977.362E-03
            2122            2371     961.639E-03     977.362E-03
            2120            2371     961.639E-03     977.362E-03
            2124            2372     606.325E-03     645.471E-03
            2122            2372     606.325E-03     645.471E-03
            2121            2372     606.325E-03     645.471E-03
            2125            2372     606.325E-03     645.471E-03
            2125            2373         1.01941         1.04109
            2122            2373         1.01941         1.04109
            2123            2373         1.01941         1.04109
            2126            2373         1.01941         1.04109
            2125            2374     564.823E-03     574.087E-03
            2124            2374     564.823E-03     574.087E-03
            2127            2374     564.823E-03     574.087E-03
            2128            2374     564.823E-03     574.087E-03
            2128            2375         1.05037         1.02858
            2126            2375         1.05037         1.02858
            2125            2375         1.05037         1.02858
            2129            2375         1.05037         1.02858
            2134            2376         1.24920         1.24790
            2133            2376         1.24920         1.24790
            2130            2376         1.24920         1.24790
            2131            2376         1.24920         1.24790
            2132            2377     939.826E-03     939.666E-03
            2134            2377     939.826E-03     939.666E-03
            2131            2377     939.826E-03     939.666E-03
            2135            2377     939.826E-03     939.666E-03
            2137            2378         1.20531         1.19665
            2136            2378         1.20531         1.19665
            2133            2378         1.20531         1.19665
            2134            2378         1.20531         1.19665
            2134            2379     932.538E-03     935.848E-03
            2135            2379     932.538E-03     935.848E-03
            2138            2379     932.538E-03     935.848E-03
            2137            2379     932.538E-03     935.848E-03
            2136            2380         1.19458         1.20925
            2139            2380         1.19458         1.20925
            2140            2380         1.19458         1.20925
            2137            2380         1.19458         1.20925
            2137            2381     884.940E-03     896.564E-03
            2140            2381     884.940E-03     896.564E-03
            2141            2381     884.940E-03     896.564E-03
            2138            2381     884.940E-03     896.564E-03
            2140            2382         1.06962         1.06876
            2143            2382         1.06962         1.06876
            2142            2382         1.06962         1.06876
            2139            2382         1.06962         1.06876
            2143            2383     948.131E-03     946.705E-03
            2144            2383     948.131E-03     946.705E-03
            2141            2383     948.131E-03     946.705E-03
            2140            2383     948.131E-03     946.705E-03
            2225            2440     973.484E-03     935.434E-03
            2226            2440     973.484E-03     935.434E-03
            2228            2440     973.484E-03     935.434E-03
            2229            2440     973.484E-03     935.434E-03
            2230            2441     578.875E-03     554.378E-03
            2227            2441     578.875E-03     554.378E-03
            2226            2441     578.875E-03     554.378E-03
            2229            2441     578.875E-03     554.378E-03
            2232            2442         1.05687         1.04060
            2229            2442         1.05687         1.04060
            2231            2442         1.05687         1.04060
            2228            2442         1.05687         1.04060
            2232            2443     665.443E-03     652.370E-03
            2233            2443     665.443E-03     652.370E-03
            2230            2443     665.443E-03     652.370E-03
            2229            2443     665.443E-03     652.370E-03
            2234            2444         1.15007         1.19893
            2231            2444         1.15007         1.19893
            2235            2444         1.15007         1.19893
            2232            2444         1.15007         1.19893
            2233            2445     670.730E-03     707.737E-03
            2235            2445     670.730E-03     707.737E-03
            2236            2445     670.730E-03     707.737E-03
            2232            2445     670.730E-03     707.737E-03
            2234            2446         1.17447         1.16992
            2237            2446         1.17447         1.16992
            2238            2446         1.17447         1.16992
            2235            2446         1.17447         1.16992
            2235            2447     619.166E-03     634.444E-03
            2238            2447     619.166E-03     634.444E-03
            2239            2447     619.166E-03     634.444E-03
            2236            2447     619.166E-03     634.444E-03
            2244            2448     831.381E-03     838.345E-03
            2240            2448     831.381E-03     838.345E-03
            2243            2448     831.381E-03     838.345E-03
            2241            2448     831.381E-03     838.345E-03
            2242            2449         1.02272         1.03297
            2241            2449         1.02272         1.03297
            2244            2449         1.02272         1.03297
            2245            2449         1.02272         1.03297
            2243            2450     886.443E-03     884.189E-03
            2247            2450     886.443E-03     884.189E-03
            2246            2450     886.443E-03     884.189E-03
            2244            2450     886.443E-03     884.189E-03
            2247            2451     915.007E-03     913.316E-03
            2248            2451     915.007E-03     913.316E-03
            2245            2451     915.007E-03     913.316E-03
            2244            2451     915.007E-03     913.316E-03
            2250            2452     834.749E-03     831.430E-03
            2247            2452     834.749E-03     831.430E-03
            2249            2452     834.749E-03     831.430E-03
            2246            2452     834.749E-03     831.430E-03
            2250            2453     896.652E-03     872.973E-03
            2247            2453     896.652E-03     872.973E-03
            2251            2453     896.652E-03     872.973E-03
            2248            2453     896.652E-03     872.973E-03
            2252            2454     815.893E-03     827.727E-03
            2253            2454     815.893E-03     827.727E-03
            2249            2454     815.893E-03     827.727E-03
            2250            2454     815.893E-03     827.727E-03
            2250            2455     933.396E-03     927.897E-03
            2251            2455     933.396E-03     927.897E-03
            2254            2455     933.396E-03     927.897E-03
            2253            2455     933.396E-03     927.897E-03
            2255            2456     856.421E-03     869.607E-03
            2253            2456     856.421E-03     869.607E-03
            2256            2456     856.421E-03     869.607E-03
            2252            2456     856.421E-03     869.607E-03
            2253            2457     843.282E-03     845.441E-03
            2254            2457     843.282E-03     845.441E-03
            2256            2457     843.282E-03     845.441E-03
            2257            2457     843.282E-03     845.441E-03
            2258            2458     846.255E-03     850.923E-03
            2255            2458     846.255E-03     850.923E-03
            2259            2458     846.255E-03     850.923E-03
            2256            2458     846.255E-03     850.923E-03
            2259            2459     751.877E-03     752.155E-03
            2257            2459     751.877E-03     752.155E-03
            2260            2459     751.877E-03     752.155E-03
            2256            2459     751.877E-03     752.155E-03
            2261            2460     830.911E-03     828.234E-03
            2258            2460     830.911E-03     828.234E-03
            2259            2460     830.911E-03     828.234E-03
            2262            2460     830.911E-03     828.234E-03
            2263            2461     692.979E-03     696.653E-03
            2259            2461     692.979E-03     696.653E-03
            2260            2461     692.979E-03     696.653E-03
            2262            2461     692.979E-03     696.653E-03
            2264            2462     816.735E-03     804.438E-03
            2262            2462     816.735E-03     804.438E-03
            2261            2462     816.735E-03     804.438E-03
            2265            2462     816.735E-03     804.438E-03
            2263            2463     662.958E-03     667.035E-03
            2265            2463     662.958E-03     667.035E-03
            2262            2463     662.958E-03     667.035E-03
            2266            2463     662.958E-03     667.035E-03
            2264            2464     788.527E-03     774.430E-03
            2268            2464     788.527E-03     774.430E-03
            2265            2464     788.527E-03     774.430E-03
            2267            2464     788.527E-03     774.430E-03
            2265            2465     659.133E-03     658.517E-03
            2266            2465     659.133E-03     658.517E-03
            2268            2465     659.133E-03     658.517E-03
            2269            2465     659.133E-03     658.517E-03
            2271            2466     582.393E-03     575.640E-03
            2267            2466     582.393E-03     575.640E-03
            2270            2466     582.393E-03     575.640E-03
            2268            2466     582.393E-03     575.640E-03
            2269            2467     527.447E-03     524.047E-03
            2268            2467     527.447E-03     524.047E-03
            2271            2467     527.447E-03     524.047E-03
            2272            2467     527.447E-03     524.047E-03
            2750            2844     3.97446E-15     4.28753E-15
            2747            2844     3.97446E-15     4.28753E-15
            2749            2844     3.97446E-15     4.28753E-15
            2746            2844     3.97446E-15     4.28753E-15
            2751            2845     3.24630E-15     3.36747E-15
            2748            2845     3.24630E-15     3.36747E-15
            2747            2845     3.24630E-15     3.36747E-15
            2750            2845     3.24630E-15     3.36747E-15
            2749            2846     7.46639E-15     7.37170E-15
            2750            2846     7.46639E-15     7.37170E-15
            2752            2846     7.46639E-15     7.37170E-15
            2753            2846     7.46639E-15     7.37170E-15
            2750            2847     9.72860E-15     9.58003E-15
            2753            2847     9.72860E-15     9.58003E-15
            2754            2847     9.72860E-15     9.58003E-15
            2751            2847     9.72860E-15     9.58003E-15
            2753            2848     8.54407E-15     8.89913E-15
            2755            2848     8.54407E-15     8.89913E-15
            2752            2848     8.54407E-15     8.89913E-15
            2756            2848     8.54407E-15     8.89913E-15
            2754            2849     11.9202E-15     11.9648E-15
            2757            2849     11.9202E-15     11.9648E-15
            2753            2849     11.9202E-15     11.9648E-15
            2756            2849     11.9202E-15     11.9648E-15
            2756            2850     4.66040E-15     5.40588E-15
            2759            2850     4.66040E-15     5.40588E-15
            2758            2850     4.66040E-15     5.40588E-15
            2755            2850     4.66040E-15     5.40588E-15
            2757            2851     6.83006E-15     7.31161E-15
            2759            2851     6.83006E-15     7.31161E-15
            2756            2851     6.83006E-15     7.31161E-15
            2760            2851     6.83006E-15     7.31161E-15
            2759            2852     10.9404E-15     10.8380E-15
            2762            2852     10.9404E-15     10.8380E-15
            2761            2852     10.9404E-15     10.8380E-15
            2758            2852     10.9404E-15     10.8380E-15
            2759            2853     10.1905E-15     10.5094E-15
            2760            2853     10.1905E-15     10.5094E-15
            2762            2853     10.1905E-15     10.5094E-15
            2763            2853     10.1905E-15     10.5094E-15
            2823            2894     5.02004E-15     4.57640E-15
            2820            2894     5.02004E-15     4.57640E-15
            2819            2894     5.02004E-15     4.57640E-15
            2822            2894     5.02004E-15     4.57640E-15
            2823            2895     5.65844E-15     5.69023E-15
            2821            2895     5.65844E-15     5.69023E-15
            2820            2895     5.65844E-15     5.69023E-15
            2824            2895     5.65844E-15     5.69023E-15
            2826            2896     7.01260E-15     6.59437E-15
            2823            2896     7.01260E-15     6.59437E-15
            2825            2896     7.01260E-15     6.59437E-15
            2822            2896     7.01260E-15     6.59437E-15
            2826            2897     4.64206E-15     4.59404E-15
            2824            2897     4.64206E-15     4.59404E-15
            2823            2897     4.64206E-15     4.59404E-15
            2827            2897     4.64206E-15     4.59404E-15
            2825            2898     4.93983E-15     5.04452E-15
            2828            2898     4.93983E-15     5.04452E-15
            2826            2898     4.93983E-15     5.04452E-15
            2829            2898     4.93983E-15     5.04452E-15
            2826            2899     5.80586E-15     5.70639E-15
            2829            2899     5.80586E-15     5.70639E-15
            2830            2899     5.80586E-15     5.70639E-15
            2827            2899     5.80586E-15     5.70639E-15
            2832            2900     5.77835E-15     6.06666E-15
            2831            2900     5.77835E-15     6.06666E-15
            2829            2900     5.77835E-15     6.06666E-15
            2828            2900     5.77835E-15     6.06666E-15
            2832            2901     7.86806E-15     7.83567E-15
            2833            2901     7.86806E-15     7.83567E-15
            2829            2901     7.86806E-15     7.83567E-15
            2830            2901     7.86806E-15     7.83567E-15
            2834            2902     12.1425E-15     12.1399E-15
            2835            2902     12.1425E-15     12.1399E-15
            2832            2902     12.1425E-15     12.1399E-15
            2831            2902     12.1425E-15     12.1399E-15
            2836            2903     8.91257E-15     8.70441E-15
            2835            2903     8.91257E-15     8.70441E-15
            2832            2903     8.91257E-15     8.70441E-15
            2833            2903     8.91257E-15     8.70441E-15
            2837            2904     939.826E-03     939.666E-03
            2840            2904     939.826E-03     939.666E-03
            2838            2904     939.826E-03     939.666E-03
            2841            2904     939.826E-03     939.666E-03
            2842            2905         1.24920         1.24790
            2841            2905         1.24920         1.24790
            2838            2905         1.24920         1.24790
            2839            2905         1.24920         1.24790
            2844            2906     932.538E-03     935.848E-03
            2840            2906     932.538E-03     935.848E-03
            2843            2906     932.538E-03     935.848E-03
            2841            2906     932.538E-03     935.848E-03
            2844            2907         1.20531         1.19665
            2845            2907         1.20531         1.19665
            2841            2907         1.20531         1.19665
            2842            2907         1.20531         1.19665
            2844            2908     884.940E-03     896.564E-03
            2846            2908     884.940E-03     896.564E-03
            2843            2908     884.940E-03     896.564E-03
            2847            2908     884.940E-03     896.564E-03
            2844            2909         1.19458         1.20925
            2845            2909         1.19458         1.20925
            2847            2909         1.19458         1.20925
            2848            2909         1.19458         1.20925
            2846            2910     948.131E-03     946.705E-03
            2847            2910     948.131E-03     946.705E-03
            2849            2910     948.131E-03     946.705E-03
            2850            2910     948.131E-03     946.705E-03
            2847            2911         1.06962         1.06876
            2848            2911         1.06962         1.06876
            2851            2911         1.06962         1.06876
            2850            2911         1.06962         1.06876
            2882            2932         1.02272         1.03297
            2886            2932         1.02272         1.03297
            2885            2932         1.02272         1.03297
            2883            2932         1.02272         1.03297
            2883            2933     831.381E-03     838.345E-03
            2884            2933     831.381E-03     838.345E-03
            2886            2933     831.381E-03     838.345E-03
            2887            2933     831.381E-03     838.345E-03
            2885            2934     915.007E-03     913.316E-03
            2888            2934     915.007E-03     913.316E-03
            2889            2934     915.007E-03     913.316E-03
            2886            2934     915.007E-03     913.316E-03
            2887            2935     886.443E-03     884.189E-03
            2886            2935     886.443E-03     884.189E-03
            2889            2935     886.443E-03     884.189E-03
            2890            2935     886.443E-03     884.189E-03
            2889            2936     896.652E-03     872.973E-03
            2888            2936     896.652E-03     872.973E-03
            2892            2936     896.652E-03     872.973E-03
            2891            2936     896.652E-03     872.973E-03
            2892            2937     834.749E-03     831.430E-03
            2893            2937     834.749E-03     831.430E-03
            2890            2937     834.749E-03     831.430E-03
            2889            2937     834.749E-03     831.430E-03
            2891            2938     933.396E-03     927.897E-03
            2892            2938     933.396E-03     927.897E-03
            2894            2938     933.396E-03     927.897E-03
            2895            2938     933.396E-03     927.897E-03
            2893            2939     815.893E-03     827.727E-03
            2895            2939     815.893E-03     827.727E-03
            2896            2939     815.893E-03     827.727E-03
            2892            2939     815.893E-03     827.727E-03
            2894            2940     843.282E-03     845.441E-03
            2897            2940     843.282E-03     845.441E-03
            2895            2940     843.282E-03     845.441E-03
            2898            2940     843.282E-03     845.441E-03
            2896            2941     856.421E-03     869.607E-03
            2898            2941     856.421E-03     869.607E-03
            2895            2941     856.421E-03     869.607E-03
            2899            2941     856.421E-03     869.607E-03
            2901            2942     751.877E-03     752.155E-03
            2900            2942     751.877E-03     752.155E-03
            2898            2942     751.877E-03     752.155E-03
            2897            2942     751.877E-03     752.155E-03
            2899            2943     846.255E-03     850.923E-03
            2901            2943     846.255E-03     850.923E-03
            2898            2943     846.255E-03     850.923E-03
            2902            2943     846.255E-03     850.923E-03
            2903            2944     692.979E-03     696.653E-03
            2901            2944     692.979E-03     696.653E-03
            2904            2944     692.979E-03     696.653E-03
            2900            2944     692.979E-03     696.653E-03
            2904            2945     830.911E-03     828.234E-03
            2902            2945     830.911E-03     828.234E-03
            2905            2945     830.911E-03     828.234E-03
            2901            2945     830.911E-03     828.234E-03
            2903            2946     662.958E-03     667.035E-03
            2906            2946     662.958E-03     667.035E-03
            2904            2946     662.958E-03     667.035E-03
            2907            2946     662.958E-03     667.035E-03
            2907            2947     816.735E-03     804.438E-03
            2905            2947     816.735E-03     804.438E-03
            2908            2947     816.735E-03     804.438E-03
            2904            2947     816.735E-03     804.438E-03
            2907            2948     659.133E-03     658.517E-03
            2910            2948     659.133E-03     658.517E-03
            2909            2948     659.133E-03     658.517E-03
            2906            2948     659.133E-03     658.517E-03
            2908            2949     788.527E-03     774.430E-03
            2910            2949     788.527E-03     774.430E-03
            2907            2949     788.527E-03     774.430E-03
            2911            2949     788.527E-03     774.430E-03
            2910            2950     527.447E-03     524.047E-03
            2909            2950     527.447E-03     524.047E-03
            2912            2950     527.447E-03     524.047E-03
            2913            2950     527.447E-03     524.047E-03
            2911            2951     582.393E-03     575.640E-03
            2914            2951     582.393E-03     575.640E-03
            2910            2951     582.393E-03     575.640E-03
            2913            2951     582.393E-03     575.640E-03


  Minimum                            1.40498E-15     1.25492E-15
      At Element                             846             846
            Node                            1358            1358

  Maximum                                1.55261         1.50983
      At Element                            2839            2839
            Node                              16              16

           Total                         856.932         851.869


Field Output reported at element nodes for region: CRJ700-1.Region_3
   Computation algorithm: EXTRAPOLATE_COMPUTE_AVERAGE
   Averaged at nodes
   Averaging regions: ODB_REGIONS

   Element Label      Node Label         S.Mises         S.Mises
                                          @Loc 1          @Loc 2
-----------------------------------------------------------------
               1               1     3.09662E-03     3.48389E-03
            2288               1     3.09662E-03     3.48389E-03
            2273               2     10.1964E-03     10.4813E-03
              16               2     10.1964E-03     10.4813E-03
            1009               3         1.37323         1.42524
             544               3         1.37323         1.42524
             529               4     42.1949E-03     65.8262E-03
             994               4     42.1949E-03     65.8262E-03
            2368               7     15.2186E-15     8.51141E-15
            2353               9     16.6582E-15     17.1996E-15
            1768              16         1.56377         1.67794
            1073              16         1.56377         1.67794
            1058              18     93.3406E-03     129.197E-03
            1753              18     93.3406E-03     129.197E-03
            1832              21         1.04710         1.09661
            3026              21         1.04710         1.09661
            3011              22     162.897E-03     172.249E-03
            1817              22     162.897E-03     172.249E-03
            2560              28     24.3316E-03     25.0215E-03
            3186              28     24.3316E-03     25.0215E-03
            2545              30     7.54655E-03     8.48864E-03
            3171              30     7.54655E-03     8.48864E-03
            2640              31     17.1090E-15     18.3760E-15
            2625              32     12.2016E-15     18.0821E-15
               2              36     3.15128E-03     3.54814E-03
            2288              36     3.15128E-03     3.54814E-03
            2287              36     3.15128E-03     3.54814E-03
               1              36     3.15128E-03     3.54814E-03
               3              37     3.31816E-03     3.72723E-03
            2287              37     3.31816E-03     3.72723E-03
               2              37     3.31816E-03     3.72723E-03
            2286              37     3.31816E-03     3.72723E-03
            2285              38     3.58984E-03     3.99915E-03
               4              38     3.58984E-03     3.99915E-03
               3              38     3.58984E-03     3.99915E-03
            2286              38     3.58984E-03     3.99915E-03
            2285              39     3.94514E-03     4.34676E-03
               4              39     3.94514E-03     4.34676E-03
            2284              39     3.94514E-03     4.34676E-03
               5              39     3.94514E-03     4.34676E-03
            2284              40     4.36385E-03     4.75364E-03
            2283              40     4.36385E-03     4.75364E-03
               6              40     4.36385E-03     4.75364E-03
               5              40     4.36385E-03     4.75364E-03
            2282              41     4.82957E-03     5.20595E-03
               7              41     4.82957E-03     5.20595E-03
               6              41     4.82957E-03     5.20595E-03
            2283              41     4.82957E-03     5.20595E-03
            2281              42     5.32998E-03     5.69286E-03
            2282              42     5.32998E-03     5.69286E-03
               8              42     5.32998E-03     5.69286E-03
               7              42     5.32998E-03     5.69286E-03
            2281              43     5.85615E-03     6.20622E-03
               8              43     5.85615E-03     6.20622E-03
               9              43     5.85615E-03     6.20622E-03
            2280              43     5.85615E-03     6.20622E-03
              10              44     6.40172E-03     6.73998E-03
               9              44     6.40172E-03     6.73998E-03
            2280              44     6.40172E-03     6.73998E-03
            2279              44     6.40172E-03     6.73998E-03
            2278              45     6.96211E-03     7.28963E-03
            2279              45     6.96211E-03     7.28963E-03
              11              45     6.96211E-03     7.28963E-03
              10              45     6.96211E-03     7.28963E-03
              11              46     7.53399E-03     7.85184E-03
            2277              46     7.53399E-03     7.85184E-03
              12              46     7.53399E-03     7.85184E-03
            2278              46     7.53399E-03     7.85184E-03
              12              47     8.11492E-03     8.42407E-03
              13              47     8.11492E-03     8.42407E-03
            2277              47     8.11492E-03     8.42407E-03
            2276              47     8.11492E-03     8.42407E-03
            2276              48     8.70309E-03     9.00440E-03
              14              48     8.70309E-03     9.00440E-03
            2275              48     8.70309E-03     9.00440E-03
              13              48     8.70309E-03     9.00440E-03
              15              49     9.29712E-03     9.59137E-03
            2275              49     9.29712E-03     9.59137E-03
            2274              49     9.29712E-03     9.59137E-03
              14              49     9.29712E-03     9.59137E-03
            2273              50     9.89594E-03     10.1838E-03
              16              50     9.89594E-03     10.1838E-03
              15              50     9.89594E-03     10.1838E-03
            2274              50     9.89594E-03     10.1838E-03
              32              51     45.9785E-03     55.8379E-03
              16              51     45.9785E-03     55.8379E-03
              48              52     91.8123E-03     101.066E-03
              32              52     91.8123E-03     101.066E-03
              48              53     138.952E-03     135.719E-03
              64              53     138.952E-03     135.719E-03
              80              54     191.922E-03     187.207E-03
              64              54     191.922E-03     187.207E-03
              80              55     239.330E-03     246.025E-03
              96              55     239.330E-03     246.025E-03
              96              56     298.801E-03     295.550E-03
             112              56     298.801E-03     295.550E-03
             128              57     349.158E-03     364.457E-03
             112              57     349.158E-03     364.457E-03
             128              58     332.525E-03     343.944E-03
             144              58     332.525E-03     343.944E-03
             144              59     335.174E-03     324.347E-03
             160              59     335.174E-03     324.347E-03
             160              60     409.284E-03     411.052E-03
             176              60     409.284E-03     411.052E-03
             192              61     471.798E-03     483.253E-03
             176              61     471.798E-03     483.253E-03
             208              62     535.101E-03     535.594E-03
             192              62     535.101E-03     535.594E-03
             224              63     586.941E-03     602.635E-03
             208              63     586.941E-03     602.635E-03
             224              64     569.296E-03     585.559E-03
             240              64     569.296E-03     585.559E-03
             256              65     582.872E-03     568.084E-03
             240              65     582.872E-03     568.084E-03
             272              66     654.805E-03     663.139E-03
             256              66     654.805E-03     663.139E-03
             272              67     724.419E-03     730.448E-03
             288              67     724.419E-03     730.448E-03
             288              68     777.535E-03     795.341E-03
             304              68     777.535E-03     795.341E-03
             320              69     838.305E-03     841.791E-03
             304              69     838.305E-03     841.791E-03
             320              70     884.091E-03     899.558E-03
             336              70     884.091E-03     899.558E-03
             336              71     855.315E-03     878.537E-03
             352              71     855.315E-03     878.537E-03
             368              72     872.337E-03     857.341E-03
             352              72     872.337E-03     857.341E-03
             368              73     948.767E-03     960.228E-03
             384              73     948.767E-03     960.228E-03
             384              74         1.02033         1.03160
             400              74         1.02033         1.03160
             416              75         1.07366         1.09672
             400              75         1.07366         1.09672
             432              76         1.13302         1.13949
             416              76         1.13302         1.13949
             448              77         1.17453         1.19002
             432              77         1.17453         1.19002
             464              78         1.13901         1.16925
             448              78         1.13901         1.16925
             464              79         1.15785         1.14984
             480              79         1.15785         1.14984
             480              80         1.24856         1.25599
             496              80         1.24856         1.25599
             496              81         1.31130         1.34631
             512              81         1.31130         1.34631
             528              82         1.37614         1.38193
             512              82         1.37614         1.38193
             528              83         1.41228         1.43157
             544              83         1.41228         1.43157
            1009              84         1.29477         1.33773
             543              84         1.29477         1.33773
            1008              84         1.29477         1.33773
             544              84         1.29477         1.33773
             542              85         1.17144         1.20245
            1007              85         1.17144         1.20245
            1008              85         1.17144         1.20245
             543              85         1.17144         1.20245
            1007              86         1.08002         1.11175
             542              86         1.08002         1.11175
            1006              86         1.08002         1.11175
             541              86         1.08002         1.11175
            1005              87     992.791E-03         1.02751
            1006              87     992.791E-03         1.02751
             540              87     992.791E-03         1.02751
             541              87     992.791E-03         1.02751
            1005              88     909.622E-03     945.661E-03
            1004              88     909.622E-03     945.661E-03
             539              88     909.622E-03     945.661E-03
             540              88     909.622E-03     945.661E-03
             538              89     826.394E-03     863.670E-03
            1004              89     826.394E-03     863.670E-03
             539              89     826.394E-03     863.670E-03
            1003              89     826.394E-03     863.670E-03
            1002              90     743.547E-03     780.990E-03
             538              90     743.547E-03     780.990E-03
             537              90     743.547E-03     780.990E-03
            1003              90     743.547E-03     780.990E-03
             536              91     660.020E-03     697.803E-03
            1002              91     660.020E-03     697.803E-03
             537              91     660.020E-03     697.803E-03
            1001              91     660.020E-03     697.803E-03
            1000              92     576.315E-03     614.059E-03
            1001              92     576.315E-03     614.059E-03
             535              92     576.315E-03     614.059E-03
             536              92     576.315E-03     614.059E-03
            1000              93     492.099E-03     530.060E-03
             999              93     492.099E-03     530.060E-03
             534              93     492.099E-03     530.060E-03
             535              93     492.099E-03     530.060E-03
             998              94     407.884E-03     445.799E-03
             534              94     407.884E-03     445.799E-03
             533              94     407.884E-03     445.799E-03
             999              94     407.884E-03     445.799E-03
             532              95     323.711E-03     361.246E-03
             997              95     323.711E-03     361.246E-03
             533              95     323.711E-03     361.246E-03
             998              95     323.711E-03     361.246E-03
             997              96     240.133E-03     276.359E-03
             996              96     240.133E-03     276.359E-03
             531              96     240.133E-03     276.359E-03
             532              96     240.133E-03     276.359E-03
             530              97     158.172E-03     191.245E-03
             531              97     158.172E-03     191.245E-03
             995              97     158.172E-03     191.245E-03
             996              97     158.172E-03     191.245E-03
             530              98     80.0427E-03     107.159E-03
             994              98     80.0427E-03     107.159E-03
             529              98     80.0427E-03     107.159E-03
             995              98     80.0427E-03     107.159E-03
             513              99     35.4039E-03     75.1303E-03
             529              99     35.4039E-03     75.1303E-03
             513             100     38.4107E-03     79.6465E-03
             497             100     38.4107E-03     79.6465E-03
             481             101     84.9424E-03     91.2979E-03
             497             101     84.9424E-03     91.2979E-03
             481             102     133.051E-03     144.617E-03
             465             102     133.051E-03     144.617E-03
             465             103     167.913E-03     205.042E-03
             449             103     167.913E-03     205.042E-03
             449             104     110.066E-03     139.687E-03
             433             104     110.066E-03     139.687E-03
             433             105     26.4320E-03     58.4046E-03
             417             105     26.4320E-03     58.4046E-03
             417             106     33.6818E-03     57.0153E-03
             401             106     33.6818E-03     57.0153E-03
             401             107     68.1584E-03     76.4279E-03
             385             107     68.1584E-03     76.4279E-03
             385             108     103.347E-03     103.617E-03
             369             108     103.347E-03     103.617E-03
             353             109     141.241E-03     148.625E-03
             369             109     141.241E-03     148.625E-03
             337             110     165.829E-03     198.762E-03
             353             110     165.829E-03     198.762E-03
             337             111     93.9062E-03     123.296E-03
             321             111     93.9062E-03     123.296E-03
             321             112     22.1282E-03     38.4019E-03
             305             112     22.1282E-03     38.4019E-03
             289             113     44.9413E-03     48.6759E-03
             305             113     44.9413E-03     48.6759E-03
             289             114     71.4948E-03     71.2575E-03
             273             114     71.4948E-03     71.2575E-03
             257             115     97.2474E-03     92.7755E-03
             273             115     97.2474E-03     92.7755E-03
             257             116     124.486E-03     126.539E-03
             241             116     124.486E-03     126.539E-03
             241             117     140.002E-03     165.217E-03
             225             117     140.002E-03     165.217E-03
             225             118     85.6393E-03     109.076E-03
             209             118     85.6393E-03     109.076E-03
             209             119     42.0261E-03     44.7147E-03
             193             119     42.0261E-03     44.7147E-03
             177             120     63.6090E-03     57.7340E-03
             193             120     63.6090E-03     57.7340E-03
             161             121     81.2098E-03     71.9578E-03
             177             121     81.2098E-03     71.9578E-03
             145             122     99.1088E-03     94.8300E-03
             161             122     99.1088E-03     94.8300E-03
             145             123     107.155E-03     122.190E-03
             129             123     107.155E-03     122.190E-03
             113             124     78.9138E-03     96.6137E-03
             129             124     78.9138E-03     96.6137E-03
              97             125     59.4464E-03     64.8041E-03
             113             125     59.4464E-03     64.8041E-03
              97             126     73.0433E-03     64.3127E-03
              81             126     73.0433E-03     64.3127E-03
              65             127     79.7907E-03     70.8760E-03
              81             127     79.7907E-03     70.8760E-03
              49             128     86.5516E-03     77.0420E-03
              65             128     86.5516E-03     77.0420E-03
              49             129     93.7768E-03     87.6463E-03
              33             129     93.7768E-03     87.6463E-03
              17             130     92.1905E-03     104.164E-03
              33             130     92.1905E-03     104.164E-03
              17             131     47.1804E-03     57.3960E-03
               1             131     47.1804E-03     57.3960E-03
            2352             167     13.7668E-15     13.2369E-15
            2368             167     13.7668E-15     13.2369E-15
            2336             168     10.7870E-15     17.3577E-15
            2352             168     10.7870E-15     17.3577E-15
            2320             169     6.61307E-15     13.8895E-15
            2336             169     6.61307E-15     13.8895E-15
            2304             170     14.1238E-15     21.1355E-15
            2320             170     14.1238E-15     21.1355E-15
            2304             171     29.3537E-15     28.5379E-15
            2288             171     29.3537E-15     28.5379E-15
            2289             176     17.0309E-15     15.1200E-15
            2273             176     17.0309E-15     15.1200E-15
            2305             177     11.6948E-15     8.79336E-15
            2289             177     11.6948E-15     8.79336E-15
            2321             178     11.3397E-15     9.59621E-15
            2305             178     11.3397E-15     9.59621E-15
            2337             179     16.7063E-15     17.8721E-15
            2321             179     16.7063E-15     17.8721E-15
            2337             180     19.5685E-15     21.8422E-15
            2353             180     19.5685E-15     21.8422E-15
            1025             314         1.36947         1.37918
            1009             314         1.36947         1.37918
            1025             315         1.45087         1.46212
            1041             315         1.45087         1.46212
            1057             316         1.55821         1.56342
            1041             316         1.55821         1.56342
            1073             317         1.60683         1.63919
            1057             317         1.60683         1.63919
            1768             324         1.44544         1.55888
            1073             324         1.44544         1.55888
            1767             324         1.44544         1.55888
            1072             324         1.44544         1.55888
            1072             325         1.29291         1.39602
            1071             325         1.29291         1.39602
            1766             325         1.29291         1.39602
            1767             325         1.29291         1.39602
            1766             326         1.20387         1.30705
            1071             326         1.20387         1.30705
            1070             326         1.20387         1.30705
            1765             326         1.20387         1.30705
            1070             327         1.10634         1.21282
            1764             327         1.10634         1.21282
            1765             327         1.10634         1.21282
            1069             327         1.10634         1.21282
            1069             328         1.01373         1.11869
            1764             328         1.01373         1.11869
            1068             328         1.01373         1.11869
            1763             328         1.01373         1.11869
            1068             329     918.161E-03         1.02458
            1067             329     918.161E-03         1.02458
            1762             329     918.161E-03         1.02458
            1763             329     918.161E-03         1.02458
            1067             330     823.621E-03     928.701E-03
            1762             330     823.621E-03     928.701E-03
            1761             330     823.621E-03     928.701E-03
            1066             330     823.621E-03     928.701E-03
            1066             331     727.738E-03     833.255E-03
            1760             331     727.738E-03     833.255E-03
            1065             331     727.738E-03     833.255E-03
            1761             331     727.738E-03     833.255E-03
            1760             332     632.460E-03     737.113E-03
            1759             332     632.460E-03     737.113E-03
            1064             332     632.460E-03     737.113E-03
            1065             332     632.460E-03     737.113E-03
            1064             333     536.932E-03     641.330E-03
            1063             333     536.932E-03     641.330E-03
            1758             333     536.932E-03     641.330E-03
            1759             333     536.932E-03     641.330E-03
            1757             334     442.071E-03     545.609E-03
            1758             334     442.071E-03     545.609E-03
            1062             334     442.071E-03     545.609E-03
            1063             334     442.071E-03     545.609E-03
            1757             335     348.023E-03     450.505E-03
            1756             335     348.023E-03     450.505E-03
            1061             335     348.023E-03     450.505E-03
            1062             335     348.023E-03     450.505E-03
            1755             336     257.250E-03     356.073E-03
            1756             336     257.250E-03     356.073E-03
            1061             336     257.250E-03     356.073E-03
            1060             336     257.250E-03     356.073E-03
            1060             337     174.301E-03     262.541E-03
            1755             337     174.301E-03     262.541E-03
            1059             337     174.301E-03     262.541E-03
            1754             337     174.301E-03     262.541E-03
            1753             338     114.509E-03     172.502E-03
            1059             338     114.509E-03     172.502E-03
            1754             338     114.509E-03     172.502E-03
            1058             338     114.509E-03     172.502E-03
            1042             339     46.5244E-03     75.0629E-03
            1058             339     46.5244E-03     75.0629E-03
            1042             340     83.7740E-03     117.016E-03
            1026             340     83.7740E-03     117.016E-03
            1026             341     137.004E-03     169.095E-03
            1010             341     137.004E-03     169.095E-03
             994             342     95.4132E-03     119.056E-03
            1010             342     95.4132E-03     119.056E-03
            1768             393         1.45199         1.47436
            1784             393         1.45199         1.47436
            1800             394         1.38343         1.40351
            1784             394         1.38343         1.40351
            1816             395         1.32813         1.37916
            1800             395         1.32813         1.37916
            1832             396         1.15007         1.10756
            1816             396         1.15007         1.10756
            1832             397         1.01485         1.05244
            3026             397         1.01485         1.05244
            1831             397         1.01485         1.05244
            3025             397         1.01485         1.05244
            3024             398     963.724E-03     986.730E-03
            1830             398     963.724E-03     986.730E-03
            1831             398     963.724E-03     986.730E-03
            3025             398     963.724E-03     986.730E-03
            3023             399     908.849E-03     930.767E-03
            1830             399     908.849E-03     930.767E-03
            3024             399     908.849E-03     930.767E-03
            1829             399     908.849E-03     930.767E-03
            3022             400     840.764E-03     864.910E-03
            3023             400     840.764E-03     864.910E-03
            1828             400     840.764E-03     864.910E-03
            1829             400     840.764E-03     864.910E-03
            3021             401     774.822E-03     799.190E-03
            1828             401     774.822E-03     799.190E-03
            3022             401     774.822E-03     799.190E-03
            1827             401     774.822E-03     799.190E-03
            3021             402     707.573E-03     731.880E-03
            1826             402     707.573E-03     731.880E-03
            3020             402     707.573E-03     731.880E-03
            1827             402     707.573E-03     731.880E-03
            3019             403     640.695E-03     665.051E-03
            3020             403     640.695E-03     665.051E-03
            1825             403     640.695E-03     665.051E-03
            1826             403     640.695E-03     665.051E-03
            1825             404     573.841E-03     598.180E-03
            3018             404     573.841E-03     598.180E-03
            3019             404     573.841E-03     598.180E-03
            1824             404     573.841E-03     598.180E-03
            1824             405     507.724E-03     532.079E-03
            3018             405     507.724E-03     532.079E-03
            3017             405     507.724E-03     532.079E-03
            1823             405     507.724E-03     532.079E-03
            1823             406     442.674E-03     466.921E-03
            1822             406     442.674E-03     466.921E-03
            3016             406     442.674E-03     466.921E-03
            3017             406     442.674E-03     466.921E-03
            3015             407     379.425E-03     403.412E-03
            1822             407     379.425E-03     403.412E-03
            1821             407     379.425E-03     403.412E-03
            3016             407     379.425E-03     403.412E-03
            3015             408     319.126E-03     342.473E-03
            3014             408     319.126E-03     342.473E-03
            1821             408     319.126E-03     342.473E-03
            1820             408     319.126E-03     342.473E-03
            1820             409     263.714E-03     286.525E-03
            3013             409     263.714E-03     286.525E-03
            3014             409     263.714E-03     286.525E-03
            1819             409     263.714E-03     286.525E-03
            3012             410     219.504E-03     239.682E-03
            3013             410     219.504E-03     239.682E-03
            1818             410     219.504E-03     239.682E-03
            1819             410     219.504E-03     239.682E-03
            1817             411     182.128E-03     195.743E-03
            1818             411     182.128E-03     195.743E-03
            3011             411     182.128E-03     195.743E-03
            3012             411     182.128E-03     195.743E-03
            1801             412     201.804E-03     207.009E-03
            1817             412     201.804E-03     207.009E-03
            1801             413     151.399E-03     162.055E-03
            1785             413     151.399E-03     162.055E-03
            1785             414     152.343E-03     148.839E-03
            1769             414     152.343E-03     148.839E-03
            1769             415     172.766E-03     180.950E-03
            1753             415     172.766E-03     180.950E-03
            3042             470         1.00653         1.05915
            3026             470         1.00653         1.05915
            3042             471     846.678E-03     796.237E-03
            3058             471     846.678E-03     796.237E-03
            3074             472     802.038E-03     837.674E-03
            3058             472     802.038E-03     837.674E-03
            3090             473     832.826E-03     870.850E-03
            3074             473     832.826E-03     870.850E-03
            3106             474     712.703E-03     704.361E-03
            3090             474     712.703E-03     704.361E-03
            3106             475     569.847E-03     585.801E-03
            3122             475     569.847E-03     585.801E-03
            3138             476     456.362E-03     444.731E-03
            3122             476     456.362E-03     444.731E-03
            3138             477     329.280E-03     321.218E-03
            3154             477     329.280E-03     321.218E-03
            3170             478     216.720E-03     240.567E-03
            3154             478     216.720E-03     240.567E-03
            3186             479     108.729E-03     134.054E-03
            3170             479     108.729E-03     134.054E-03
            2367             492     9.72001E-15     9.22546E-15
            2368             492     9.72001E-15     9.22546E-15
            2366             493     11.9431E-15     15.5638E-15
            2367             493     11.9431E-15     15.5638E-15
            2366             494     12.0374E-15     12.1659E-15
            2365             494     12.0374E-15     12.1659E-15
            2364             495     8.57140E-15     8.54957E-15
            2365             495     8.57140E-15     8.54957E-15
            2363             496     18.1779E-15     16.6842E-15
            2364             496     18.1779E-15     16.6842E-15
            2362             497     22.3752E-15     17.4103E-15
            2363             497     22.3752E-15     17.4103E-15
            2361             498     12.6339E-15     12.2053E-15
            2362             498     12.6339E-15     12.2053E-15
            2361             499     4.58291E-15     8.04249E-15
            2360             499     4.58291E-15     8.04249E-15
            2359             500     10.7744E-15     8.61806E-15
            2360             500     10.7744E-15     8.61806E-15
            2358             501     16.1980E-15     10.7981E-15
            2359             501     16.1980E-15     10.7981E-15
            2358             502     11.9206E-15     11.3605E-15
            2357             502     11.9206E-15     11.3605E-15
            2356             503     6.88893E-15     8.59872E-15
            2357             503     6.88893E-15     8.59872E-15
            2355             504     14.9368E-15     13.4019E-15
            2356             504     14.9368E-15     13.4019E-15
            2354             505     23.9635E-15     21.0901E-15
            2355             505     23.9635E-15     21.0901E-15
            2353             506     20.2604E-15     19.2474E-15
            2354             506     20.2604E-15     19.2474E-15
            3027             522     157.197E-03     163.306E-03
            3011             522     157.197E-03     163.306E-03
            3043             523     192.183E-03     192.350E-03
            3027             523     192.183E-03     192.350E-03
            3059             524     156.983E-03     173.356E-03
            3043             524     156.983E-03     173.356E-03
            3059             525     145.155E-03     158.547E-03
            3075             525     145.155E-03     158.547E-03
            3091             526     177.791E-03     156.516E-03
            3075             526     177.791E-03     156.516E-03
            3091             527     193.668E-03     171.549E-03
            3107             527     193.668E-03     171.549E-03
            3107             528     209.553E-03     185.999E-03
            3123             528     209.553E-03     185.999E-03
            3139             529     226.297E-03     211.395E-03
            3123             529     226.297E-03     211.395E-03
            3155             530     221.778E-03     250.805E-03
            3139             530     221.778E-03     250.805E-03
            3171             531     113.560E-03     138.188E-03
            3155             531     113.560E-03     138.188E-03
            3171             547     7.67381E-03     8.63825E-03
            3172             547     7.67381E-03     8.63825E-03
            2545             547     7.67381E-03     8.63825E-03
            2546             547     7.67381E-03     8.63825E-03
            3172             548     8.06290E-03     9.05585E-03
            3173             548     8.06290E-03     9.05585E-03
            2546             548     8.06290E-03     9.05585E-03
            2547             548     8.06290E-03     9.05585E-03
            3173             549     8.69787E-03     9.69131E-03
            2548             549     8.69787E-03     9.69131E-03
            2547             549     8.69787E-03     9.69131E-03
            3174             549     8.69787E-03     9.69131E-03
            2549             550     9.53058E-03     10.5058E-03
            3175             550     9.53058E-03     10.5058E-03
            2548             550     9.53058E-03     10.5058E-03
            3174             550     9.53058E-03     10.5058E-03
            3176             551     10.5146E-03     11.4614E-03
            2549             551     10.5146E-03     11.4614E-03
            2550             551     10.5146E-03     11.4614E-03
            3175             551     10.5146E-03     11.4614E-03
            2551             552     11.6117E-03     12.5261E-03
            3177             552     11.6117E-03     12.5261E-03
            3176             552     11.6117E-03     12.5261E-03
            2550             552     11.6117E-03     12.5261E-03
            3177             553     12.7927E-03     13.6744E-03
            2551             553     12.7927E-03     13.6744E-03
            3178             553     12.7927E-03     13.6744E-03
            2552             553     12.7927E-03     13.6744E-03
            3178             554     14.0365E-03     14.8870E-03
            2552             554     14.0365E-03     14.8870E-03
            3179             554     14.0365E-03     14.8870E-03
            2553             554     14.0365E-03     14.8870E-03
            2553             555     15.3277E-03     16.1492E-03
            3180             555     15.3277E-03     16.1492E-03
            2554             555     15.3277E-03     16.1492E-03
            3179             555     15.3277E-03     16.1492E-03
            3181             556     16.6552E-03     17.4504E-03
            2554             556     16.6552E-03     17.4504E-03
            2555             556     16.6552E-03     17.4504E-03
            3180             556     16.6552E-03     17.4504E-03
            3182             557     18.0109E-03     18.7824E-03
            2556             557     18.0109E-03     18.7824E-03
            2555             557     18.0109E-03     18.7824E-03
            3181             557     18.0109E-03     18.7824E-03
            2557             558     19.3890E-03     20.1390E-03
            3182             558     19.3890E-03     20.1390E-03
            2556             558     19.3890E-03     20.1390E-03
            3183             558     19.3890E-03     20.1390E-03
            3184             559     20.7850E-03     21.5157E-03
            3183             559     20.7850E-03     21.5157E-03
            2557             559     20.7850E-03     21.5157E-03
            2558             559     20.7850E-03     21.5157E-03
            2559             560     22.1954E-03     22.9087E-03
            3184             560     22.1954E-03     22.9087E-03
            3185             560     22.1954E-03     22.9087E-03
            2558             560     22.1954E-03     22.9087E-03
            3186             561     23.6177E-03     24.3152E-03
            2559             561     23.6177E-03     24.3152E-03
            2560             561     23.6177E-03     24.3152E-03
            3185             561     23.6177E-03     24.3152E-03
            2560             562     2.44681E-15     3.47795E-15
            2576             562     2.44681E-15     3.47795E-15
            2576             563     8.94568E-15     10.0390E-15
            2592             563     8.94568E-15     10.0390E-15
            2608             564     9.66053E-15     9.44217E-15
            2592             564     9.66053E-15     9.44217E-15
            2624             565     3.13350E-15     3.38111E-15
            2608             565     3.13350E-15     3.38111E-15
            2640             566     8.79732E-15     9.95897E-15
            2624             566     8.79732E-15     9.95897E-15
            2640             567     14.1620E-15     14.2024E-15
            2639             567     14.1620E-15     14.2024E-15
            2639             568     9.36943E-15     9.50229E-15
            2638             568     9.36943E-15     9.50229E-15
            2638             569     5.93123E-15     7.73404E-15
            2637             569     5.93123E-15     7.73404E-15
            2636             570     7.05323E-15     8.04197E-15
            2637             570     7.05323E-15     8.04197E-15
            2635             571     6.39248E-15     6.01749E-15
            2636             571     6.39248E-15     6.01749E-15
            2635             572     5.24972E-15     4.01978E-15
            2634             572     5.24972E-15     4.01978E-15
            2634             573     8.06021E-15     6.26266E-15
            2633             573     8.06021E-15     6.26266E-15
            2632             574     13.8959E-15     10.2317E-15
            2633             574     13.8959E-15     10.2317E-15
            2632             575     16.6070E-15     10.8878E-15
            2631             575     16.6070E-15     10.8878E-15
            2631             576     16.6676E-15     7.56254E-15
            2630             576     16.6676E-15     7.56254E-15
            2629             577     17.2318E-15     5.95476E-15
            2630             577     17.2318E-15     5.95476E-15
            2629             578     10.6602E-15     8.21103E-15
            2628             578     10.6602E-15     8.21103E-15
            2628             579     14.7362E-15     15.4458E-15
            2627             579     14.7362E-15     15.4458E-15
            2627             580     17.5733E-15     14.1225E-15
            2626             580     17.5733E-15     14.1225E-15
            2625             581     12.0038E-15     13.4160E-15
            2626             581     12.0038E-15     13.4160E-15
            2609             582     15.7075E-15     16.9133E-15
            2625             582     15.7075E-15     16.9133E-15
            2593             583     17.2678E-15     16.4143E-15
            2609             583     17.2678E-15     16.4143E-15
            2593             584     15.5528E-15     19.2660E-15
            2577             584     15.5528E-15     19.2660E-15
            2577             585     12.4584E-15     16.4246E-15
            2561             585     12.4584E-15     16.4246E-15
            2545             586     9.39622E-15     11.9705E-15
            2561             586     9.39622E-15     11.9705E-15
               1             635     50.5048E-03     56.1664E-03
              17             635     50.5048E-03     56.1664E-03
              18             635     50.5048E-03     56.1664E-03
               2             635     50.5048E-03     56.1664E-03
              19             636     55.1719E-03     54.3987E-03
               2             636     55.1719E-03     54.3987E-03
              18             636     55.1719E-03     54.3987E-03
               3             636     55.1719E-03     54.3987E-03
               3             637     58.0649E-03     55.0041E-03
               4             637     58.0649E-03     55.0041E-03
              20             637     58.0649E-03     55.0041E-03
              19             637     58.0649E-03     55.0041E-03
               4             638     61.2135E-03     57.0145E-03
              21             638     61.2135E-03     57.0145E-03
              20             638     61.2135E-03     57.0145E-03
               5             638     61.2135E-03     57.0145E-03
              22             639     64.6333E-03     59.3871E-03
               5             639     64.6333E-03     59.3871E-03
               6             639     64.6333E-03     59.3871E-03
              21             639     64.6333E-03     59.3871E-03
              22             640     68.3692E-03     62.2816E-03
              23             640     68.3692E-03     62.2816E-03
               7             640     68.3692E-03     62.2816E-03
               6             640     68.3692E-03     62.2816E-03
               8             641     72.2488E-03     65.4431E-03
              24             641     72.2488E-03     65.4431E-03
              23             641     72.2488E-03     65.4431E-03
               7             641     72.2488E-03     65.4431E-03
              25             642     76.1734E-03     68.6676E-03
              24             642     76.1734E-03     68.6676E-03
               9             642     76.1734E-03     68.6676E-03
               8             642     76.1734E-03     68.6676E-03
              25             643     79.8626E-03     71.7423E-03
              10             643     79.8626E-03     71.7423E-03
              26             643     79.8626E-03     71.7423E-03
               9             643     79.8626E-03     71.7423E-03
              11             644     83.0374E-03     74.2608E-03
              27             644     83.0374E-03     74.2608E-03
              26             644     83.0374E-03     74.2608E-03
              10             644     83.0374E-03     74.2608E-03
              28             645     84.8012E-03     75.3163E-03
              27             645     84.8012E-03     75.3163E-03
              11             645     84.8012E-03     75.3163E-03
              12             645     84.8012E-03     75.3163E-03
              28             646     84.7438E-03     74.2645E-03
              29             646     84.7438E-03     74.2645E-03
              12             646     84.7438E-03     74.2645E-03
              13             646     84.7438E-03     74.2645E-03
              30             647     80.0360E-03     68.2829E-03
              13             647     80.0360E-03     68.2829E-03
              14             647     80.0360E-03     68.2829E-03
              29             647     80.0360E-03     68.2829E-03
              14             648     70.1350E-03     56.4188E-03
              30             648     70.1350E-03     56.4188E-03
              15             648     70.1350E-03     56.4188E-03
              31             648     70.1350E-03     56.4188E-03
              31             649     55.2719E-03     52.5811E-03
              16             649     55.2719E-03     52.5811E-03
              15             649     55.2719E-03     52.5811E-03
              32             649     55.2719E-03     52.5811E-03
              34             650     94.1498E-03     102.075E-03
              17             650     94.1498E-03     102.075E-03
              33             650     94.1498E-03     102.075E-03
              18             650     94.1498E-03     102.075E-03
              35             651     98.9951E-03     99.2553E-03
              19             651     98.9951E-03     99.2553E-03
              34             651     98.9951E-03     99.2553E-03
              18             651     98.9951E-03     99.2553E-03
              36             652     104.836E-03     99.8081E-03
              19             652     104.836E-03     99.8081E-03
              20             652     104.836E-03     99.8081E-03
              35             652     104.836E-03     99.8081E-03
              20             653     110.634E-03     103.056E-03
              21             653     110.634E-03     103.056E-03
              36             653     110.634E-03     103.056E-03
              37             653     110.634E-03     103.056E-03
              37             654     116.879E-03     107.552E-03
              21             654     116.879E-03     107.552E-03
              38             654     116.879E-03     107.552E-03
              22             654     116.879E-03     107.552E-03
              23             655     123.716E-03     113.031E-03
              39             655     123.716E-03     113.031E-03
              22             655     123.716E-03     113.031E-03
              38             655     123.716E-03     113.031E-03
              40             656     130.939E-03     119.115E-03
              24             656     130.939E-03     119.115E-03
              23             656     130.939E-03     119.115E-03
              39             656     130.939E-03     119.115E-03
              41             657     138.456E-03     125.566E-03
              25             657     138.456E-03     125.566E-03
              24             657     138.456E-03     125.566E-03
              40             657     138.456E-03     125.566E-03
              25             658     145.810E-03     132.018E-03
              42             658     145.810E-03     132.018E-03
              41             658     145.810E-03     132.018E-03
              26             658     145.810E-03     132.018E-03
              26             659     152.571E-03     137.725E-03
              42             659     152.571E-03     137.725E-03
              43             659     152.571E-03     137.725E-03
              27             659     152.571E-03     137.725E-03
              27             660     157.470E-03     141.689E-03
              28             660     157.470E-03     141.689E-03
              44             660     157.470E-03     141.689E-03
              43             660     157.470E-03     141.689E-03
              29             661     158.180E-03     141.270E-03
              45             661     158.180E-03     141.270E-03
              28             661     158.180E-03     141.270E-03
              44             661     158.180E-03     141.270E-03
              46             662     151.466E-03     133.012E-03
              30             662     151.466E-03     133.012E-03
              45             662     151.466E-03     133.012E-03
              29             662     151.466E-03     133.012E-03
              31             663     127.307E-03     109.078E-03
              47             663     127.307E-03     109.078E-03
              46             663     127.307E-03     109.078E-03
              30             663     127.307E-03     109.078E-03
              31             664     100.310E-03     96.3285E-03
              48             664     100.310E-03     96.3285E-03
              47             664     100.310E-03     96.3285E-03
              32             664     100.310E-03     96.3285E-03
              49             665     92.3739E-03     90.2635E-03
              34             665     92.3739E-03     90.2635E-03
              33             665     92.3739E-03     90.2635E-03
              50             665     92.3739E-03     90.2635E-03
              51             666     92.4825E-03     93.3652E-03
              50             666     92.4825E-03     93.3652E-03
              35             666     92.4825E-03     93.3652E-03
              34             666     92.4825E-03     93.3652E-03
              52             667     97.0065E-03     95.1004E-03
              35             667     97.0065E-03     95.1004E-03
              36             667     97.0065E-03     95.1004E-03
              51             667     97.0065E-03     95.1004E-03
              37             668     103.072E-03     98.9309E-03
              53             668     103.072E-03     98.9309E-03
              52             668     103.072E-03     98.9309E-03
              36             668     103.072E-03     98.9309E-03
              38             669     109.618E-03     104.533E-03
              54             669     109.618E-03     104.533E-03
              37             669     109.618E-03     104.533E-03
              53             669     109.618E-03     104.533E-03
              54             670     117.042E-03     111.141E-03
              39             670     117.042E-03     111.141E-03
              38             670     117.042E-03     111.141E-03
              55             670     117.042E-03     111.141E-03
              40             671     125.181E-03     118.708E-03
              39             671     125.181E-03     118.708E-03
              55             671     125.181E-03     118.708E-03
              56             671     125.181E-03     118.708E-03
              56             672     133.928E-03     126.974E-03
              40             672     133.928E-03     126.974E-03
              57             672     133.928E-03     126.974E-03
              41             672     133.928E-03     126.974E-03
              42             673     143.221E-03     135.828E-03
              57             673     143.221E-03     135.828E-03
              58             673     143.221E-03     135.828E-03
              41             673     143.221E-03     135.828E-03
              42             674     152.508E-03     144.767E-03
              43             674     152.508E-03     144.767E-03
              58             674     152.508E-03     144.767E-03
              59             674     152.508E-03     144.767E-03
              59             675     161.315E-03     153.189E-03
              43             675     161.315E-03     153.189E-03
              60             675     161.315E-03     153.189E-03
              44             675     161.315E-03     153.189E-03
              45             676     166.522E-03     158.610E-03
              60             676     166.522E-03     158.610E-03
              61             676     166.522E-03     158.610E-03
              44             676     166.522E-03     158.610E-03
              45             677     163.925E-03     157.161E-03
              46             677     163.925E-03     157.161E-03
              62             677     163.925E-03     157.161E-03
              61             677     163.925E-03     157.161E-03
              46             678     142.251E-03     139.344E-03
              47             678     142.251E-03     139.344E-03
              63             678     142.251E-03     139.344E-03
              62             678     142.251E-03     139.344E-03
              47             679     131.530E-03     130.032E-03
              48             679     131.530E-03     130.032E-03
              63             679     131.530E-03     130.032E-03
              64             679     131.530E-03     130.032E-03
              66             680     86.8765E-03     79.4104E-03
              49             680     86.8765E-03     79.4104E-03
              65             680     86.8765E-03     79.4104E-03
              50             680     86.8765E-03     79.4104E-03
              67             681     87.7713E-03     84.6986E-03
              66             681     87.7713E-03     84.6986E-03
              51             681     87.7713E-03     84.6986E-03
              50             681     87.7713E-03     84.6986E-03
              68             682     90.3727E-03     90.0570E-03
              52             682     90.3727E-03     90.0570E-03
              67             682     90.3727E-03     90.0570E-03
              51             682     90.3727E-03     90.0570E-03
              52             683     95.5838E-03     95.4598E-03
              68             683     95.5838E-03     95.4598E-03
              53             683     95.5838E-03     95.4598E-03
              69             683     95.5838E-03     95.4598E-03
              54             684     102.432E-03     102.039E-03
              69             684     102.432E-03     102.039E-03
              53             684     102.432E-03     102.039E-03
              70             684     102.432E-03     102.039E-03
              71             685     110.293E-03     109.769E-03
              54             685     110.293E-03     109.769E-03
              70             685     110.293E-03     109.769E-03
              55             685     110.293E-03     109.769E-03
              55             686     119.093E-03     118.486E-03
              72             686     119.093E-03     118.486E-03
              56             686     119.093E-03     118.486E-03
              71             686     119.093E-03     118.486E-03
              57             687     128.716E-03     128.095E-03
              56             687     128.716E-03     128.095E-03
              72             687     128.716E-03     128.095E-03
              73             687     128.716E-03     128.095E-03
              74             688     139.045E-03     138.426E-03
              58             688     139.045E-03     138.426E-03
              57             688     139.045E-03     138.426E-03
              73             688     139.045E-03     138.426E-03
              74             689     150.010E-03     149.458E-03
              75             689     150.010E-03     149.458E-03
              59             689     150.010E-03     149.458E-03
              58             689     150.010E-03     149.458E-03
              76             690     160.474E-03     160.237E-03
              75             690     160.474E-03     160.237E-03
              60             690     160.474E-03     160.237E-03
              59             690     160.474E-03     160.237E-03
              61             691     169.996E-03     170.052E-03
              76             691     169.996E-03     170.052E-03
              77             691     169.996E-03     170.052E-03
              60             691     169.996E-03     170.052E-03
              78             692     171.763E-03     174.255E-03
              62             692     171.763E-03     174.255E-03
              61             692     171.763E-03     174.255E-03
              77             692     171.763E-03     174.255E-03
              62             693     164.564E-03     169.685E-03
              78             693     164.564E-03     169.685E-03
              63             693     164.564E-03     169.685E-03
              79             693     164.564E-03     169.685E-03
              63             694     176.115E-03     176.432E-03
              80             694     176.115E-03     176.432E-03
              64             694     176.115E-03     176.432E-03
              79             694     176.115E-03     176.432E-03
              65             695     80.0585E-03     72.6565E-03
              82             695     80.0585E-03     72.6565E-03
              81             695     80.0585E-03     72.6565E-03
              66             695     80.0585E-03     72.6565E-03
              82             696     80.9278E-03     78.0857E-03
              66             696     80.9278E-03     78.0857E-03
              67             696     80.9278E-03     78.0857E-03
              83             696     80.9278E-03     78.0857E-03
              67             697     83.2604E-03     85.2589E-03
              84             697     83.2604E-03     85.2589E-03
              68             697     83.2604E-03     85.2589E-03
              83             697     83.2604E-03     85.2589E-03
              84             698     88.0781E-03     92.2253E-03
              85             698     88.0781E-03     92.2253E-03
              68             698     88.0781E-03     92.2253E-03
              69             698     88.0781E-03     92.2253E-03
              85             699     95.0078E-03     99.7725E-03
              70             699     95.0078E-03     99.7725E-03
              86             699     95.0078E-03     99.7725E-03
              69             699     95.0078E-03     99.7725E-03
              87             700     103.146E-03     108.424E-03
              86             700     103.146E-03     108.424E-03
              71             700     103.146E-03     108.424E-03
              70             700     103.146E-03     108.424E-03
              72             701     112.233E-03     117.888E-03
              71             701     112.233E-03     117.888E-03
              87             701     112.233E-03     117.888E-03
              88             701     112.233E-03     117.888E-03
              88             702     122.172E-03     128.136E-03
              89             702     122.172E-03     128.136E-03
              73             702     122.172E-03     128.136E-03
              72             702     122.172E-03     128.136E-03
              73             703     132.784E-03     139.079E-03
              89             703     132.784E-03     139.079E-03
              90             703     132.784E-03     139.079E-03
              74             703     132.784E-03     139.079E-03
              90             704     143.964E-03     150.571E-03
              91             704     143.964E-03     150.571E-03
              74             704     143.964E-03     150.571E-03
              75             704     143.964E-03     150.571E-03
              75             705     155.527E-03     162.644E-03
              92             705     155.527E-03     162.644E-03
              76             705     155.527E-03     162.644E-03
              91             705     155.527E-03     162.644E-03
              92             706     166.501E-03     174.349E-03
              76             706     166.501E-03     174.349E-03
              93             706     166.501E-03     174.349E-03
              77             706     166.501E-03     174.349E-03
              77             707     178.329E-03     186.168E-03
              93             707     178.329E-03     186.168E-03
              78             707     178.329E-03     186.168E-03
              94             707     178.329E-03     186.168E-03
              78             708     193.062E-03     198.979E-03
              94             708     193.062E-03     198.979E-03
              95             708     193.062E-03     198.979E-03
              79             708     193.062E-03     198.979E-03
              80             709     220.211E-03     225.755E-03
              96             709     220.211E-03     225.755E-03
              95             709     220.211E-03     225.755E-03
              79             709     220.211E-03     225.755E-03
              97             710     71.9639E-03     67.9955E-03
              98             710     71.9639E-03     67.9955E-03
              81             710     71.9639E-03     67.9955E-03
              82             710     71.9639E-03     67.9955E-03
              82             711     71.6155E-03     74.8038E-03
              98             711     71.6155E-03     74.8038E-03
              99             711     71.6155E-03     74.8038E-03
              83             711     71.6155E-03     74.8038E-03
              84             712     74.7449E-03     81.3982E-03
              99             712     74.7449E-03     81.3982E-03
              83             712     74.7449E-03     81.3982E-03
             100             712     74.7449E-03     81.3982E-03
             100             713     80.2579E-03     89.0430E-03
              85             713     80.2579E-03     89.0430E-03
             101             713     80.2579E-03     89.0430E-03
              84             713     80.2579E-03     89.0430E-03
              86             714     87.1685E-03     97.6687E-03
              85             714     87.1685E-03     97.6687E-03
             101             714     87.1685E-03     97.6687E-03
             102             714     87.1685E-03     97.6687E-03
              86             715     95.4030E-03     106.912E-03
             102             715     95.4030E-03     106.912E-03
             103             715     95.4030E-03     106.912E-03
              87             715     95.4030E-03     106.912E-03
             103             716     104.576E-03     116.860E-03
             104             716     104.576E-03     116.860E-03
              87             716     104.576E-03     116.860E-03
              88             716     104.576E-03     116.860E-03
             104             717     114.397E-03     127.244E-03
              89             717     114.397E-03     127.244E-03
              88             717     114.397E-03     127.244E-03
             105             717     114.397E-03     127.244E-03
              89             718     124.797E-03     138.110E-03
             106             718     124.797E-03     138.110E-03
             105             718     124.797E-03     138.110E-03
              90             718     124.797E-03     138.110E-03
              91             719     135.540E-03     149.333E-03
             107             719     135.540E-03     149.333E-03
              90             719     135.540E-03     149.333E-03
             106             719     135.540E-03     149.333E-03
             108             720     147.078E-03     161.312E-03
             107             720     147.078E-03     161.312E-03
              91             720     147.078E-03     161.312E-03
              92             720     147.078E-03     161.312E-03
             108             721     159.603E-03     174.541E-03
              93             721     159.603E-03     174.541E-03
             109             721     159.603E-03     174.541E-03
              92             721     159.603E-03     174.541E-03
              94             722     177.170E-03     191.483E-03
              93             722     177.170E-03     191.483E-03
             109             722     177.170E-03     191.483E-03
             110             722     177.170E-03     191.483E-03
             111             723     212.202E-03     221.971E-03
              94             723     212.202E-03     221.971E-03
              95             723     212.202E-03     221.971E-03
             110             723     212.202E-03     221.971E-03
              96             724     267.442E-03     268.953E-03
             112             724     267.442E-03     268.953E-03
             111             724     267.442E-03     268.953E-03
              95             724     267.442E-03     268.953E-03
             114             725     59.7752E-03     66.6234E-03
              98             725     59.7752E-03     66.6234E-03
              97             725     59.7752E-03     66.6234E-03
             113             725     59.7752E-03     66.6234E-03
              98             726     61.7627E-03     71.2552E-03
              99             726     61.7627E-03     71.2552E-03
             114             726     61.7627E-03     71.2552E-03
             115             726     61.7627E-03     71.2552E-03
             116             727     66.0136E-03     77.9327E-03
             115             727     66.0136E-03     77.9327E-03
             100             727     66.0136E-03     77.9327E-03
              99             727     66.0136E-03     77.9327E-03
             100             728     71.7347E-03     86.3358E-03
             116             728     71.7347E-03     86.3358E-03
             117             728     71.7347E-03     86.3358E-03
             101             728     71.7347E-03     86.3358E-03
             117             729     78.8236E-03     95.6156E-03
             101             729     78.8236E-03     95.6156E-03
             102             729     78.8236E-03     95.6156E-03
             118             729     78.8236E-03     95.6156E-03
             102             730     87.1155E-03     105.447E-03
             118             730     87.1155E-03     105.447E-03
             119             730     87.1155E-03     105.447E-03
             103             730     87.1155E-03     105.447E-03
             119             731     96.2631E-03     115.609E-03
             120             731     96.2631E-03     115.609E-03
             104             731     96.2631E-03     115.609E-03
             103             731     96.2631E-03     115.609E-03
             121             732     105.977E-03     126.097E-03
             104             732     105.977E-03     126.097E-03
             105             732     105.977E-03     126.097E-03
             120             732     105.977E-03     126.097E-03
             121             733     116.030E-03     136.666E-03
             122             733     116.030E-03     136.666E-03
             105             733     116.030E-03     136.666E-03
             106             733     116.030E-03     136.666E-03
             123             734     126.581E-03     147.659E-03
             122             734     126.581E-03     147.659E-03
             106             734     126.581E-03     147.659E-03
             107             734     126.581E-03     147.659E-03
             124             735     137.671E-03     159.155E-03
             108             735     137.671E-03     159.155E-03
             123             735     137.671E-03     159.155E-03
             107             735     137.671E-03     159.155E-03
             109             736     151.815E-03     173.481E-03
             125             736     151.815E-03     173.481E-03
             124             736     151.815E-03     173.481E-03
             108             736     151.815E-03     173.481E-03
             110             737     171.393E-03     193.509E-03
             109             737     171.393E-03     193.509E-03
             126             737     171.393E-03     193.509E-03
             125             737     171.393E-03     193.509E-03
             111             738     209.550E-03     231.952E-03
             126             738     209.550E-03     231.952E-03
             110             738     209.550E-03     231.952E-03
             127             738     209.550E-03     231.952E-03
             128             739     292.869E-03     311.748E-03
             127             739     292.869E-03     311.748E-03
             112             739     292.869E-03     311.748E-03
             111             739     292.869E-03     311.748E-03
             113             740     85.6940E-03     96.8146E-03
             129             740     85.6940E-03     96.8146E-03
             130             740     85.6940E-03     96.8146E-03
             114             740     85.6940E-03     96.8146E-03
             114             741     97.1953E-03     100.038E-03
             115             741     97.1953E-03     100.038E-03
             130             741     97.1953E-03     100.038E-03
             131             741     97.1953E-03     100.038E-03
             131             742     107.849E-03     109.542E-03
             116             742     107.849E-03     109.542E-03
             115             742     107.849E-03     109.542E-03
             132             742     107.849E-03     109.542E-03
             117             743     120.605E-03     122.961E-03
             133             743     120.605E-03     122.961E-03
             132             743     120.605E-03     122.961E-03
             116             743     120.605E-03     122.961E-03
             133             744     135.042E-03     137.648E-03
             117             744     135.042E-03     137.648E-03
             134             744     135.042E-03     137.648E-03
             118             744     135.042E-03     137.648E-03
             134             745     150.797E-03     153.776E-03
             118             745     150.797E-03     153.776E-03
             135             745     150.797E-03     153.776E-03
             119             745     150.797E-03     153.776E-03
             135             746     167.296E-03     170.376E-03
             119             746     167.296E-03     170.376E-03
             120             746     167.296E-03     170.376E-03
             136             746     167.296E-03     170.376E-03
             136             747     184.310E-03     187.524E-03
             120             747     184.310E-03     187.524E-03
             121             747     184.310E-03     187.524E-03
             137             747     184.310E-03     187.524E-03
             122             748     201.401E-03     204.558E-03
             121             748     201.401E-03     204.558E-03
             137             748     201.401E-03     204.558E-03
             138             748     201.401E-03     204.558E-03
             139             749     218.485E-03     221.519E-03
             123             749     218.485E-03     221.519E-03
             122             749     218.485E-03     221.519E-03
             138             749     218.485E-03     221.519E-03
             140             750     235.264E-03     237.949E-03
             123             750     235.264E-03     237.949E-03
             124             750     235.264E-03     237.949E-03
             139             750     235.264E-03     237.949E-03
             140             751     251.619E-03     253.735E-03
             124             751     251.619E-03     253.735E-03
             141             751     251.619E-03     253.735E-03
             125             751     251.619E-03     253.735E-03
             142             752     268.512E-03     269.468E-03
             125             752     268.512E-03     269.468E-03
             141             752     268.512E-03     269.468E-03
             126             752     268.512E-03     269.468E-03
             143             753     285.642E-03     286.768E-03
             126             753     285.642E-03     286.768E-03
             142             753     285.642E-03     286.768E-03
             127             753     285.642E-03     286.768E-03
             144             754     313.315E-03     320.244E-03
             143             754     313.315E-03     320.244E-03
             128             754     313.315E-03     320.244E-03
             127             754     313.315E-03     320.244E-03
             146             755     112.837E-03     121.621E-03
             130             755     112.837E-03     121.621E-03
             129             755     112.837E-03     121.621E-03
             145             755     112.837E-03     121.621E-03
             131             756     127.076E-03     125.357E-03
             146             756     127.076E-03     125.357E-03
             130             756     127.076E-03     125.357E-03
             147             756     127.076E-03     125.357E-03
             132             757     145.607E-03     138.076E-03
             131             757     145.607E-03     138.076E-03
             148             757     145.607E-03     138.076E-03
             147             757     145.607E-03     138.076E-03
             133             758     166.369E-03     156.589E-03
             148             758     166.369E-03     156.589E-03
             149             758     166.369E-03     156.589E-03
             132             758     166.369E-03     156.589E-03
             150             759     188.888E-03     177.983E-03
             134             759     188.888E-03     177.983E-03
             133             759     188.888E-03     177.983E-03
             149             759     188.888E-03     177.983E-03
             150             760     212.833E-03     201.169E-03
             151             760     212.833E-03     201.169E-03
             134             760     212.833E-03     201.169E-03
             135             760     212.833E-03     201.169E-03
             136             761     237.671E-03     225.451E-03
             151             761     237.671E-03     225.451E-03
             135             761     237.671E-03     225.451E-03
             152             761     237.671E-03     225.451E-03
             152             762     262.983E-03     250.399E-03
             153             762     262.983E-03     250.399E-03
             136             762     262.983E-03     250.399E-03
             137             762     262.983E-03     250.399E-03
             137             763     288.674E-03     275.609E-03
             154             763     288.674E-03     275.609E-03
             153             763     288.674E-03     275.609E-03
             138             763     288.674E-03     275.609E-03
             139             764     314.067E-03     300.728E-03
             154             764     314.067E-03     300.728E-03
             155             764     314.067E-03     300.728E-03
             138             764     314.067E-03     300.728E-03
             155             765     339.032E-03     324.893E-03
             156             765     339.032E-03     324.893E-03
             139             765     339.032E-03     324.893E-03
             140             765     339.032E-03     324.893E-03
             140             766     361.335E-03     346.604E-03
             141             766     361.335E-03     346.604E-03
             156             766     361.335E-03     346.604E-03
             157             766     361.335E-03     346.604E-03
             141             767     377.380E-03     362.119E-03
             158             767     377.380E-03     362.119E-03
             142             767     377.380E-03     362.119E-03
             157             767     377.380E-03     362.119E-03
             143             768     379.466E-03     363.712E-03
             158             768     379.466E-03     363.712E-03
             159             768     379.466E-03     363.712E-03
             142             768     379.466E-03     363.712E-03
             160             769     355.205E-03     342.076E-03
             143             769     355.205E-03     342.076E-03
             144             769     355.205E-03     342.076E-03
             159             769     355.205E-03     342.076E-03
             145             770     100.556E-03     101.164E-03
             161             770     100.556E-03     101.164E-03
             162             770     100.556E-03     101.164E-03
             146             770     100.556E-03     101.164E-03
             163             771     110.217E-03     113.424E-03
             147             771     110.217E-03     113.424E-03
             146             771     110.217E-03     113.424E-03
             162             771     110.217E-03     113.424E-03
             147             772     129.257E-03     128.761E-03
             148             772     129.257E-03     128.761E-03
             164             772     129.257E-03     128.761E-03
             163             772     129.257E-03     128.761E-03
             149             773     151.645E-03     149.607E-03
             165             773     151.645E-03     149.607E-03
             148             773     151.645E-03     149.607E-03
             164             773     151.645E-03     149.607E-03
             149             774     175.778E-03     173.384E-03
             150             774     175.778E-03     173.384E-03
             166             774     175.778E-03     173.384E-03
             165             774     175.778E-03     173.384E-03
             151             775     201.341E-03     198.745E-03
             166             775     201.341E-03     198.745E-03
             150             775     201.341E-03     198.745E-03
             167             775     201.341E-03     198.745E-03
             151             776     227.784E-03     225.205E-03
             168             776     227.784E-03     225.205E-03
             167             776     227.784E-03     225.205E-03
             152             776     227.784E-03     225.205E-03
             153             777     255.041E-03     252.377E-03
             168             777     255.041E-03     252.377E-03
             169             777     255.041E-03     252.377E-03
             152             777     255.041E-03     252.377E-03
             154             778     282.836E-03     280.197E-03
             170             778     282.836E-03     280.197E-03
             169             778     282.836E-03     280.197E-03
             153             778     282.836E-03     280.197E-03
             154             779     311.311E-03     308.616E-03
             155             779     311.311E-03     308.616E-03
             170             779     311.311E-03     308.616E-03
             171             779     311.311E-03     308.616E-03
             155             780     339.807E-03     337.360E-03
             171             780     339.807E-03     337.360E-03
             156             780     339.807E-03     337.360E-03
             172             780     339.807E-03     337.360E-03
             173             781     368.208E-03     365.936E-03
             157             781     368.208E-03     365.936E-03
             156             781     368.208E-03     365.936E-03
             172             781     368.208E-03     365.936E-03
             174             782     392.477E-03     391.837E-03
             158             782     392.477E-03     391.837E-03
             173             782     392.477E-03     391.837E-03
             157             782     392.477E-03     391.837E-03
             159             783     401.121E-03     405.899E-03
             174             783     401.121E-03     405.899E-03
             175             783     401.121E-03     405.899E-03
             158             783     401.121E-03     405.899E-03
             176             784     404.588E-03     409.636E-03
             175             784     404.588E-03     409.636E-03
             160             784     404.588E-03     409.636E-03
             159             784     404.588E-03     409.636E-03
             178             785     84.9588E-03     80.4588E-03
             162             785     84.9588E-03     80.4588E-03
             177             785     84.9588E-03     80.4588E-03
             161             785     84.9588E-03     80.4588E-03
             178             786     95.9099E-03     99.5665E-03
             162             786     95.9099E-03     99.5665E-03
             179             786     95.9099E-03     99.5665E-03
             163             786     95.9099E-03     99.5665E-03
             179             787     114.011E-03     121.105E-03
             180             787     114.011E-03     121.105E-03
             163             787     114.011E-03     121.105E-03
             164             787     114.011E-03     121.105E-03
             181             788     137.526E-03     144.581E-03
             164             788     137.526E-03     144.581E-03
             180             788     137.526E-03     144.581E-03
             165             788     137.526E-03     144.581E-03
             166             789     163.223E-03     170.399E-03
             182             789     163.223E-03     170.399E-03
             165             789     163.223E-03     170.399E-03
             181             789     163.223E-03     170.399E-03
             182             790     190.048E-03     197.526E-03
             167             790     190.048E-03     197.526E-03
             166             790     190.048E-03     197.526E-03
             183             790     190.048E-03     197.526E-03
             167             791     217.813E-03     225.457E-03
             184             791     217.813E-03     225.457E-03
             168             791     217.813E-03     225.457E-03
             183             791     217.813E-03     225.457E-03
             184             792     246.230E-03     254.046E-03
             185             792     246.230E-03     254.046E-03
             168             792     246.230E-03     254.046E-03
             169             792     246.230E-03     254.046E-03
             169             793     275.250E-03     283.236E-03
             170             793     275.250E-03     283.236E-03
             185             793     275.250E-03     283.236E-03
             186             793     275.250E-03     283.236E-03
             170             794     304.869E-03     313.083E-03
             171             794     304.869E-03     313.083E-03
             186             794     304.869E-03     313.083E-03
             187             794     304.869E-03     313.083E-03
             172             795     335.064E-03     343.909E-03
             187             795     335.064E-03     343.909E-03
             188             795     335.064E-03     343.909E-03
             171             795     335.064E-03     343.909E-03
             189             796     365.545E-03     375.435E-03
             188             796     365.545E-03     375.435E-03
             173             796     365.545E-03     375.435E-03
             172             796     365.545E-03     375.435E-03
             190             797     397.266E-03     408.232E-03
             173             797     397.266E-03     408.232E-03
             189             797     397.266E-03     408.232E-03
             174             797     397.266E-03     408.232E-03
             175             798     426.548E-03     438.433E-03
             190             798     426.548E-03     438.433E-03
             174             798     426.548E-03     438.433E-03
             191             798     426.548E-03     438.433E-03
             176             799     455.595E-03     467.480E-03
             175             799     455.595E-03     467.480E-03
             192             799     455.595E-03     467.480E-03
             191             799     455.595E-03     467.480E-03
             193             800     67.1345E-03     67.0087E-03
             194             800     67.1345E-03     67.0087E-03
             177             800     67.1345E-03     67.0087E-03
             178             800     67.1345E-03     67.0087E-03
             179             801     79.2343E-03     89.0691E-03
             194             801     79.2343E-03     89.0691E-03
             195             801     79.2343E-03     89.0691E-03
             178             801     79.2343E-03     89.0691E-03
             196             802     99.4381E-03     114.859E-03
             195             802     99.4381E-03     114.859E-03
             179             802     99.4381E-03     114.859E-03
             180             802     99.4381E-03     114.859E-03
             180             803     124.093E-03     141.248E-03
             197             803     124.093E-03     141.248E-03
             181             803     124.093E-03     141.248E-03
             196             803     124.093E-03     141.248E-03
             197             804     150.884E-03     168.721E-03
             198             804     150.884E-03     168.721E-03
             181             804     150.884E-03     168.721E-03
             182             804     150.884E-03     168.721E-03
             198             805     178.741E-03     196.965E-03
             182             805     178.741E-03     196.965E-03
             183             805     178.741E-03     196.965E-03
             199             805     178.741E-03     196.965E-03
             199             806     207.225E-03     225.698E-03
             183             806     207.225E-03     225.698E-03
             200             806     207.225E-03     225.698E-03
             184             806     207.225E-03     225.698E-03
             200             807     236.107E-03     254.752E-03
             184             807     236.107E-03     254.752E-03
             201             807     236.107E-03     254.752E-03
             185             807     236.107E-03     254.752E-03
             201             808     265.394E-03     284.121E-03
             202             808     265.394E-03     284.121E-03
             185             808     265.394E-03     284.121E-03
             186             808     265.394E-03     284.121E-03
             203             809     294.811E-03     313.832E-03
             186             809     294.811E-03     313.832E-03
             202             809     294.811E-03     313.832E-03
             187             809     294.811E-03     313.832E-03
             203             810     324.914E-03     344.208E-03
             204             810     324.914E-03     344.208E-03
             188             810     324.914E-03     344.208E-03
             187             810     324.914E-03     344.208E-03
             188             811     355.826E-03     376.150E-03
             205             811     355.826E-03     376.150E-03
             204             811     355.826E-03     376.150E-03
             189             811     355.826E-03     376.150E-03
             205             812     390.096E-03     411.041E-03
             206             812     390.096E-03     411.041E-03
             190             812     390.096E-03     411.041E-03
             189             812     390.096E-03     411.041E-03
             191             813     441.582E-03     457.961E-03
             206             813     441.582E-03     457.961E-03
             207             813     441.582E-03     457.961E-03
             190             813     441.582E-03     457.961E-03
             191             814     504.662E-03     510.983E-03
             207             814     504.662E-03     510.983E-03
             208             814     504.662E-03     510.983E-03
             192             814     504.662E-03     510.983E-03
             193             815     46.4370E-03     57.6142E-03
             210             815     46.4370E-03     57.6142E-03
             194             815     46.4370E-03     57.6142E-03
             209             815     46.4370E-03     57.6142E-03
             194             816     61.6325E-03     83.6977E-03
             195             816     61.6325E-03     83.6977E-03
             210             816     61.6325E-03     83.6977E-03
             211             816     61.6325E-03     83.6977E-03
             212             817     85.0363E-03     111.161E-03
             195             817     85.0363E-03     111.161E-03
             196             817     85.0363E-03     111.161E-03
             211             817     85.0363E-03     111.161E-03
             197             818     111.208E-03     139.743E-03
             212             818     111.208E-03     139.743E-03
             213             818     111.208E-03     139.743E-03
             196             818     111.208E-03     139.743E-03
             198             819     138.946E-03     168.272E-03
             197             819     138.946E-03     168.272E-03
             213             819     138.946E-03     168.272E-03
             214             819     138.946E-03     168.272E-03
             199             820     167.416E-03     197.032E-03
             214             820     167.416E-03     197.032E-03
             198             820     167.416E-03     197.032E-03
             215             820     167.416E-03     197.032E-03
             199             821     196.116E-03     225.861E-03
             200             821     196.116E-03     225.861E-03
             215             821     196.116E-03     225.861E-03
             216             821     196.116E-03     225.861E-03
             216             822     224.992E-03     254.755E-03
             217             822     224.992E-03     254.755E-03
             201             822     224.992E-03     254.755E-03
             200             822     224.992E-03     254.755E-03
             217             823     253.740E-03     283.497E-03
             202             823     253.740E-03     283.497E-03
             201             823     253.740E-03     283.497E-03
             218             823     253.740E-03     283.497E-03
             202             824     282.670E-03     312.282E-03
             219             824     282.670E-03     312.282E-03
             218             824     282.670E-03     312.282E-03
             203             824     282.670E-03     312.282E-03
             220             825     311.647E-03     341.102E-03
             204             825     311.647E-03     341.102E-03
             219             825     311.647E-03     341.102E-03
             203             825     311.647E-03     341.102E-03
             220             826     342.719E-03     371.669E-03
             221             826     342.719E-03     371.669E-03
             205             826     342.719E-03     371.669E-03
             204             826     342.719E-03     371.669E-03
             221             827     378.026E-03     406.417E-03
             206             827     378.026E-03     406.417E-03
             222             827     378.026E-03     406.417E-03
             205             827     378.026E-03     406.417E-03
             222             828     430.366E-03     457.990E-03
             223             828     430.366E-03     457.990E-03
             206             828     430.366E-03     457.990E-03
             207             828     430.366E-03     457.990E-03
             223             829     525.540E-03     546.920E-03
             224             829     525.540E-03     546.920E-03
             208             829     525.540E-03     546.920E-03
             207             829     525.540E-03     546.920E-03
             226             830     97.1266E-03     115.036E-03
             209             830     97.1266E-03     115.036E-03
             225             830     97.1266E-03     115.036E-03
             210             830     97.1266E-03     115.036E-03
             227             831     120.715E-03     132.798E-03
             210             831     120.715E-03     132.798E-03
             226             831     120.715E-03     132.798E-03
             211             831     120.715E-03     132.798E-03
             228             832     146.944E-03     159.326E-03
             212             832     146.944E-03     159.326E-03
             211             832     146.944E-03     159.326E-03
             227             832     146.944E-03     159.326E-03
             228             833     176.709E-03     189.622E-03
             229             833     176.709E-03     189.622E-03
             212             833     176.709E-03     189.622E-03
             213             833     176.709E-03     189.622E-03
             229             834     208.712E-03     221.586E-03
             213             834     208.712E-03     221.586E-03
             214             834     208.712E-03     221.586E-03
             230             834     208.712E-03     221.586E-03
             215             835     241.804E-03     254.531E-03
             214             835     241.804E-03     254.531E-03
             230             835     241.804E-03     254.531E-03
             231             835     241.804E-03     254.531E-03
             216             836     275.632E-03     288.020E-03
             231             836     275.632E-03     288.020E-03
             232             836     275.632E-03     288.020E-03
             215             836     275.632E-03     288.020E-03
             232             837     309.445E-03     321.570E-03
             233             837     309.445E-03     321.570E-03
             217             837     309.445E-03     321.570E-03
             216             837     309.445E-03     321.570E-03
             233             838     343.168E-03     354.765E-03
             234             838     343.168E-03     354.765E-03
             217             838     343.168E-03     354.765E-03
             218             838     343.168E-03     354.765E-03
             235             839     376.136E-03     387.199E-03
             234             839     376.136E-03     387.199E-03
             218             839     376.136E-03     387.199E-03
             219             839     376.136E-03     387.199E-03
             220             840     408.358E-03     417.973E-03
             235             840     408.358E-03     417.973E-03
             236             840     408.358E-03     417.973E-03
             219             840     408.358E-03     417.973E-03
             236             841     439.309E-03     447.164E-03
             237             841     439.309E-03     447.164E-03
             220             841     439.309E-03     447.164E-03
             221             841     439.309E-03     447.164E-03
             222             842     469.953E-03     474.819E-03
             237             842     469.953E-03     474.819E-03
             238             842     469.953E-03     474.819E-03
             221             842     469.953E-03     474.819E-03
             222             843     500.399E-03     503.059E-03
             223             843     500.399E-03     503.059E-03
             238             843     500.399E-03     503.059E-03
             239             843     500.399E-03     503.059E-03
             240             844     542.091E-03     551.735E-03
             224             844     542.091E-03     551.735E-03
             223             844     542.091E-03     551.735E-03
             239             844     542.091E-03     551.735E-03
             242             845     149.645E-03     166.028E-03
             241             845     149.645E-03     166.028E-03
             225             845     149.645E-03     166.028E-03
             226             845     149.645E-03     166.028E-03
             227             846     173.609E-03     176.216E-03
             242             846     173.609E-03     176.216E-03
             226             846     173.609E-03     176.216E-03
             243             846     173.609E-03     176.216E-03
             227             847     204.688E-03     200.879E-03
             243             847     204.688E-03     200.879E-03
             244             847     204.688E-03     200.879E-03
             228             847     204.688E-03     200.879E-03
             228             848     239.498E-03     233.864E-03
             229             848     239.498E-03     233.864E-03
             244             848     239.498E-03     233.864E-03
             245             848     239.498E-03     233.864E-03
             230             849     276.946E-03     270.649E-03
             229             849     276.946E-03     270.649E-03
             245             849     276.946E-03     270.649E-03
             246             849     276.946E-03     270.649E-03
             247             850     316.390E-03     309.621E-03
             230             850     316.390E-03     309.621E-03
             231             850     316.390E-03     309.621E-03
             246             850     316.390E-03     309.621E-03
             232             851     356.828E-03     349.780E-03
             248             851     356.828E-03     349.780E-03
             231             851     356.828E-03     349.780E-03
             247             851     356.828E-03     349.780E-03
             249             852     397.941E-03     390.439E-03
             248             852     397.941E-03     390.439E-03
             232             852     397.941E-03     390.439E-03
             233             852     397.941E-03     390.439E-03
             250             853     438.986E-03     431.131E-03
             233             853     438.986E-03     431.131E-03
             249             853     438.986E-03     431.131E-03
             234             853     438.986E-03     431.131E-03
             250             854     479.674E-03     470.947E-03
             235             854     479.674E-03     470.947E-03
             251             854     479.674E-03     470.947E-03
             234             854     479.674E-03     470.947E-03
             235             855     518.738E-03     509.143E-03
             251             855     518.738E-03     509.143E-03
             252             855     518.738E-03     509.143E-03
             236             855     518.738E-03     509.143E-03
             237             856     554.197E-03     543.316E-03
             236             856     554.197E-03     543.316E-03
             252             856     554.197E-03     543.316E-03
             253             856     554.197E-03     543.316E-03
             253             857     583.327E-03     570.751E-03
             237             857     583.327E-03     570.751E-03
             254             857     583.327E-03     570.751E-03
             238             857     583.327E-03     570.751E-03
             238             858     597.986E-03     585.986E-03
             255             858     597.986E-03     585.986E-03
             254             858     597.986E-03     585.986E-03
             239             858     597.986E-03     585.986E-03
             239             859     591.574E-03     578.678E-03
             256             859     591.574E-03     578.678E-03
             240             859     591.574E-03     578.678E-03
             255             859     591.574E-03     578.678E-03
             241             860     129.031E-03     137.310E-03
             242             860     129.031E-03     137.310E-03
             257             860     129.031E-03     137.310E-03
             258             860     129.031E-03     137.310E-03
             258             861     149.041E-03     159.319E-03
             259             861     149.041E-03     159.319E-03
             242             861     149.041E-03     159.319E-03
             243             861     149.041E-03     159.319E-03
             244             862     183.432E-03     187.324E-03
             260             862     183.432E-03     187.324E-03
             243             862     183.432E-03     187.324E-03
             259             862     183.432E-03     187.324E-03
             260             863     222.290E-03     223.561E-03
             261             863     222.290E-03     223.561E-03
             244             863     222.290E-03     223.561E-03
             245             863     222.290E-03     223.561E-03
             262             864     263.258E-03     263.785E-03
             245             864     263.258E-03     263.785E-03
             261             864     263.258E-03     263.785E-03
             246             864     263.258E-03     263.785E-03
             246             865     305.787E-03     306.137E-03
             262             865     305.787E-03     306.137E-03
             247             865     305.787E-03     306.137E-03
             263             865     305.787E-03     306.137E-03
             264             866     349.400E-03     349.761E-03
             263             866     349.400E-03     349.761E-03
             248             866     349.400E-03     349.761E-03
             247             866     349.400E-03     349.761E-03
             265             867     393.796E-03     394.221E-03
             264             867     393.796E-03     394.221E-03
             249             867     393.796E-03     394.221E-03
             248             867     393.796E-03     394.221E-03
             249             868     438.901E-03     439.291E-03
             266             868     438.901E-03     439.291E-03
             265             868     438.901E-03     439.291E-03
             250             868     438.901E-03     439.291E-03
             251             869     484.121E-03     484.760E-03
             250             869     484.121E-03     484.760E-03
             266             869     484.121E-03     484.760E-03
             267             869     484.121E-03     484.760E-03
             268             870     529.337E-03     530.114E-03
             267             870     529.337E-03     530.114E-03
             251             870     529.337E-03     530.114E-03
             252             870     529.337E-03     530.114E-03
             269             871     572.234E-03     574.158E-03
             253             871     572.234E-03     574.158E-03
             268             871     572.234E-03     574.158E-03
             252             871     572.234E-03     574.158E-03
             253             872     608.768E-03     613.482E-03
             254             872     608.768E-03     613.482E-03
             270             872     608.768E-03     613.482E-03
             269             872     608.768E-03     613.482E-03
             271             873     632.367E-03     640.437E-03
             255             873     632.367E-03     640.437E-03
             270             873     632.367E-03     640.437E-03
             254             873     632.367E-03     640.437E-03
             271             874     647.155E-03     656.367E-03
             255             874     647.155E-03     656.367E-03
             272             874     647.155E-03     656.367E-03
             256             874     647.155E-03     656.367E-03
             273             875     105.770E-03     107.515E-03
             258             875     105.770E-03     107.515E-03
             274             875     105.770E-03     107.515E-03
             257             875     105.770E-03     107.515E-03
             258             876     129.645E-03     139.877E-03
             259             876     129.645E-03     139.877E-03
             275             876     129.645E-03     139.877E-03
             274             876     129.645E-03     139.877E-03
             275             877     165.205E-03     176.103E-03
             260             877     165.205E-03     176.103E-03
             259             877     165.205E-03     176.103E-03
             276             877     165.205E-03     176.103E-03
             276             878     207.067E-03     215.830E-03
             260             878     207.067E-03     215.830E-03
             261             878     207.067E-03     215.830E-03
             277             878     207.067E-03     215.830E-03
             262             879     250.833E-03     259.078E-03
             261             879     250.833E-03     259.078E-03
             278             879     250.833E-03     259.078E-03
             277             879     250.833E-03     259.078E-03
             263             880     295.730E-03     303.941E-03
             279             880     295.730E-03     303.941E-03
             262             880     295.730E-03     303.941E-03
             278             880     295.730E-03     303.941E-03
             263             881     341.563E-03     349.928E-03
             280             881     341.563E-03     349.928E-03
             279             881     341.563E-03     349.928E-03
             264             881     341.563E-03     349.928E-03
             280             882     388.142E-03     396.788E-03
             281             882     388.142E-03     396.788E-03
             264             882     388.142E-03     396.788E-03
             265             882     388.142E-03     396.788E-03
             265             883     435.396E-03     444.461E-03
             282             883     435.396E-03     444.461E-03
             266             883     435.396E-03     444.461E-03
             281             883     435.396E-03     444.461E-03
             266             884     483.441E-03     493.174E-03
             282             884     483.441E-03     493.174E-03
             267             884     483.441E-03     493.174E-03
             283             884     483.441E-03     493.174E-03
             267             885     531.590E-03     542.661E-03
             268             885     531.590E-03     542.661E-03
             283             885     531.590E-03     542.661E-03
             284             885     531.590E-03     542.661E-03
             268             886     580.485E-03     593.137E-03
             285             886     580.485E-03     593.137E-03
             269             886     580.485E-03     593.137E-03
             284             886     580.485E-03     593.137E-03
             286             887     626.168E-03     641.796E-03
             270             887     626.168E-03     641.796E-03
             269             887     626.168E-03     641.796E-03
             285             887     626.168E-03     641.796E-03
             286             888     664.467E-03     683.118E-03
             287             888     664.467E-03     683.118E-03
             271             888     664.467E-03     683.118E-03
             270             888     664.467E-03     683.118E-03
             287             889     703.285E-03     715.935E-03
             288             889     703.285E-03     715.935E-03
             271             889     703.285E-03     715.935E-03
             272             889     703.285E-03     715.935E-03
             289             890     81.9030E-03     86.9555E-03
             290             890     81.9030E-03     86.9555E-03
             273             890     81.9030E-03     86.9555E-03
             274             890     81.9030E-03     86.9555E-03
             291             891     110.620E-03     123.613E-03
             275             891     110.620E-03     123.613E-03
             274             891     110.620E-03     123.613E-03
             290             891     110.620E-03     123.613E-03
             291             892     150.019E-03     166.233E-03
             275             892     150.019E-03     166.233E-03
             292             892     150.019E-03     166.233E-03
             276             892     150.019E-03     166.233E-03
             292             893     193.602E-03     210.212E-03
             277             893     193.602E-03     210.212E-03
             293             893     193.602E-03     210.212E-03
             276             893     193.602E-03     210.212E-03
             293             894     239.145E-03     255.572E-03
             277             894     239.145E-03     255.572E-03
             294             894     239.145E-03     255.572E-03
             278             894     239.145E-03     255.572E-03
             279             895     285.498E-03     302.031E-03
             294             895     285.498E-03     302.031E-03
             278             895     285.498E-03     302.031E-03
             295             895     285.498E-03     302.031E-03
             280             896     332.385E-03     349.131E-03
             279             896     332.385E-03     349.131E-03
             295             896     332.385E-03     349.131E-03
             296             896     332.385E-03     349.131E-03
             281             897     379.826E-03     396.831E-03
             280             897     379.826E-03     396.831E-03
             296             897     379.826E-03     396.831E-03
             297             897     379.826E-03     396.831E-03
             282             898     427.727E-03     445.248E-03
             297             898     427.727E-03     445.248E-03
             281             898     427.727E-03     445.248E-03
             298             898     427.727E-03     445.248E-03
             282             899     476.255E-03     494.483E-03
             283             899     476.255E-03     494.483E-03
             298             899     476.255E-03     494.483E-03
             299             899     476.255E-03     494.483E-03
             283             900     525.832E-03     545.425E-03
             299             900     525.832E-03     545.425E-03
             284             900     525.832E-03     545.425E-03
             300             900     525.832E-03     545.425E-03
             284             901     576.541E-03     597.940E-03
             285             901     576.541E-03     597.940E-03
             301             901     576.541E-03     597.940E-03
             300             901     576.541E-03     597.940E-03
             286             902     633.091E-03     654.524E-03
             302             902     633.091E-03     654.524E-03
             285             902     633.091E-03     654.524E-03
             301             902     633.091E-03     654.524E-03
             287             903     693.492E-03     712.991E-03
             302             903     693.492E-03     712.991E-03
             303             903     693.492E-03     712.991E-03
             286             903     693.492E-03     712.991E-03
             287             904     750.245E-03     768.312E-03
             288             904     750.245E-03     768.312E-03
             304             904     750.245E-03     768.312E-03
             303             904     750.245E-03     768.312E-03
             305             905     59.1963E-03     70.0423E-03
             290             905     59.1963E-03     70.0423E-03
             306             905     59.1963E-03     70.0423E-03
             289             905     59.1963E-03     70.0423E-03
             306             906     94.0590E-03     113.666E-03
             307             906     94.0590E-03     113.666E-03
             290             906     94.0590E-03     113.666E-03
             291             906     94.0590E-03     113.666E-03
             292             907     136.785E-03     159.590E-03
             291             907     136.785E-03     159.590E-03
             308             907     136.785E-03     159.590E-03
             307             907     136.785E-03     159.590E-03
             308             908     181.859E-03     206.509E-03
             309             908     181.859E-03     206.509E-03
             293             908     181.859E-03     206.509E-03
             292             908     181.859E-03     206.509E-03
             294             909     228.158E-03     253.202E-03
             310             909     228.158E-03     253.202E-03
             309             909     228.158E-03     253.202E-03
             293             909     228.158E-03     253.202E-03
             311             910     274.911E-03     300.149E-03
             295             910     274.911E-03     300.149E-03
             294             910     274.911E-03     300.149E-03
             310             910     274.911E-03     300.149E-03
             296             911     321.923E-03     347.286E-03
             312             911     321.923E-03     347.286E-03
             311             911     321.923E-03     347.286E-03
             295             911     321.923E-03     347.286E-03
             296             912     369.044E-03     394.534E-03
             312             912     369.044E-03     394.534E-03
             313             912     369.044E-03     394.534E-03
             297             912     369.044E-03     394.534E-03
             297             913     416.446E-03     442.026E-03
             314             913     416.446E-03     442.026E-03
             298             913     416.446E-03     442.026E-03
             313             913     416.446E-03     442.026E-03
             314             914     464.075E-03     490.089E-03
             298             914     464.075E-03     490.089E-03
             299             914     464.075E-03     490.089E-03
             315             914     464.075E-03     490.089E-03
             299             915     512.965E-03     539.349E-03
             315             915     512.965E-03     539.349E-03
             316             915     512.965E-03     539.349E-03
             300             915     512.965E-03     539.349E-03
             316             916     564.403E-03     591.706E-03
             317             916     564.403E-03     591.706E-03
             301             916     564.403E-03     591.706E-03
             300             916     564.403E-03     591.706E-03
             302             917     622.764E-03     650.021E-03
             301             917     622.764E-03     650.021E-03
             317             917     622.764E-03     650.021E-03
             318             917     622.764E-03     650.021E-03
             302             918     703.607E-03     724.757E-03
             318             918     703.607E-03     724.757E-03
             303             918     703.607E-03     724.757E-03
             319             918     703.607E-03     724.757E-03
             320             919     795.345E-03     805.127E-03
             303             919     795.345E-03     805.127E-03
             319             919     795.345E-03     805.127E-03
             304             919     795.345E-03     805.127E-03
             306             920     41.5213E-03     61.6949E-03
             322             920     41.5213E-03     61.6949E-03
             305             920     41.5213E-03     61.6949E-03
             321             920     41.5213E-03     61.6949E-03
             307             921     82.2959E-03     109.778E-03
             323             921     82.2959E-03     109.778E-03
             322             921     82.2959E-03     109.778E-03
             306             921     82.2959E-03     109.778E-03
             324             922     126.428E-03     158.150E-03
             323             922     126.428E-03     158.150E-03
             307             922     126.428E-03     158.150E-03
             308             922     126.428E-03     158.150E-03
             308             923     172.201E-03     205.458E-03
             325             923     172.201E-03     205.458E-03
             309             923     172.201E-03     205.458E-03
             324             923     172.201E-03     205.458E-03
             310             924     218.291E-03     252.423E-03
             325             924     218.291E-03     252.423E-03
             326             924     218.291E-03     252.423E-03
             309             924     218.291E-03     252.423E-03
             326             925     264.604E-03     298.906E-03
             311             925     264.604E-03     298.906E-03
             310             925     264.604E-03     298.906E-03
             327             925     264.604E-03     298.906E-03
             311             926     310.857E-03     345.097E-03
             327             926     310.857E-03     345.097E-03
             328             926     310.857E-03     345.097E-03
             312             926     310.857E-03     345.097E-03
             312             927     356.983E-03     391.048E-03
             328             927     356.983E-03     391.048E-03
             329             927     356.983E-03     391.048E-03
             313             927     356.983E-03     391.048E-03
             329             928     402.926E-03     436.686E-03
             330             928     402.926E-03     436.686E-03
             313             928     402.926E-03     436.686E-03
             314             928     402.926E-03     436.686E-03
             314             929     449.262E-03     482.446E-03
             330             929     449.262E-03     482.446E-03
             315             929     449.262E-03     482.446E-03
             331             929     449.262E-03     482.446E-03
             316             930     496.268E-03     528.708E-03
             315             930     496.268E-03     528.708E-03
             331             930     496.268E-03     528.708E-03
             332             930     496.268E-03     528.708E-03
             332             931     547.051E-03     578.212E-03
             316             931     547.051E-03     578.212E-03
             333             931     547.051E-03     578.212E-03
             317             931     547.051E-03     578.212E-03
             317             932     603.970E-03     633.954E-03
             333             932     603.970E-03     633.954E-03
             334             932     603.970E-03     633.954E-03
             318             932     603.970E-03     633.954E-03
             318             933     681.485E-03     711.004E-03
             334             933     681.485E-03     711.004E-03
             335             933     681.485E-03     711.004E-03
             319             933     681.485E-03     711.004E-03
             319             934     806.731E-03     829.118E-03
             335             934     806.731E-03     829.118E-03
             320             934     806.731E-03     829.118E-03
             336             934     806.731E-03     829.118E-03
             338             935     114.961E-03     137.387E-03
             337             935     114.961E-03     137.387E-03
             321             935     114.961E-03     137.387E-03
             322             935     114.961E-03     137.387E-03
             338             936     156.476E-03     171.524E-03
             339             936     156.476E-03     171.524E-03
             323             936     156.476E-03     171.524E-03
             322             936     156.476E-03     171.524E-03
             324             937     199.713E-03     215.172E-03
             340             937     199.713E-03     215.172E-03
             339             937     199.713E-03     215.172E-03
             323             937     199.713E-03     215.172E-03
             340             938     246.472E-03     263.010E-03
             324             938     246.472E-03     263.010E-03
             325             938     246.472E-03     263.010E-03
             341             938     246.472E-03     263.010E-03
             325             939     295.634E-03     312.445E-03
             326             939     295.634E-03     312.445E-03
             341             939     295.634E-03     312.445E-03
             342             939     295.634E-03     312.445E-03
             342             940     345.997E-03     362.764E-03
             343             940     345.997E-03     362.764E-03
             326             940     345.997E-03     362.764E-03
             327             940     345.997E-03     362.764E-03
             343             941     396.969E-03     413.419E-03
             328             941     396.969E-03     413.419E-03
             327             941     396.969E-03     413.419E-03
             344             941     396.969E-03     413.419E-03
             329             942     447.852E-03     463.926E-03
             345             942     447.852E-03     463.926E-03
             344             942     447.852E-03     463.926E-03
             328             942     447.852E-03     463.926E-03
             346             943     498.610E-03     513.838E-03
             329             943     498.610E-03     513.838E-03
             330             943     498.610E-03     513.838E-03
             345             943     498.610E-03     513.838E-03
             347             944     548.573E-03     562.862E-03
             330             944     548.573E-03     562.862E-03
             346             944     548.573E-03     562.862E-03
             331             944     548.573E-03     562.862E-03
             332             945     598.278E-03     610.222E-03
             347             945     598.278E-03     610.222E-03
             331             945     598.278E-03     610.222E-03
             348             945     598.278E-03     610.222E-03
             333             946     646.993E-03     656.313E-03
             348             946     646.993E-03     656.313E-03
             332             946     646.993E-03     656.313E-03
             349             946     646.993E-03     656.313E-03
             334             947     696.738E-03     701.959E-03
             350             947     696.738E-03     701.959E-03
             349             947     696.738E-03     701.959E-03
             333             947     696.738E-03     701.959E-03
             351             948     747.086E-03     749.713E-03
             350             948     747.086E-03     749.713E-03
             335             948     747.086E-03     749.713E-03
             334             948     747.086E-03     749.713E-03
             352             949     813.158E-03     826.587E-03
             335             949     813.158E-03     826.587E-03
             351             949     813.158E-03     826.587E-03
             336             949     813.158E-03     826.587E-03
             337             950     180.409E-03     202.362E-03
             353             950     180.409E-03     202.362E-03
             338             950     180.409E-03     202.362E-03
             354             950     180.409E-03     202.362E-03
             339             951     216.344E-03     222.253E-03
             338             951     216.344E-03     222.253E-03
             354             951     216.344E-03     222.253E-03
             355             951     216.344E-03     222.253E-03
             339             952     262.598E-03     262.249E-03
             340             952     262.598E-03     262.249E-03
             356             952     262.598E-03     262.249E-03
             355             952     262.598E-03     262.249E-03
             340             953     314.167E-03     312.569E-03
             357             953     314.167E-03     312.569E-03
             341             953     314.167E-03     312.569E-03
             356             953     314.167E-03     312.569E-03
             341             954     369.078E-03     367.292E-03
             358             954     369.078E-03     367.292E-03
             357             954     369.078E-03     367.292E-03
             342             954     369.078E-03     367.292E-03
             359             955     426.378E-03     424.352E-03
             358             955     426.378E-03     424.352E-03
             342             955     426.378E-03     424.352E-03
             343             955     426.378E-03     424.352E-03
             344             956     484.776E-03     482.621E-03
             343             956     484.776E-03     482.621E-03
             360             956     484.776E-03     482.621E-03
             359             956     484.776E-03     482.621E-03
             360             957     543.886E-03     541.310E-03
             344             957     543.886E-03     541.310E-03
             361             957     543.886E-03     541.310E-03
             345             957     543.886E-03     541.310E-03
             362             958     602.851E-03     599.915E-03
             345             958     602.851E-03     599.915E-03
             346             958     602.851E-03     599.915E-03
             361             958     602.851E-03     599.915E-03
             347             959     661.467E-03     657.473E-03
             363             959     661.467E-03     657.473E-03
             362             959     661.467E-03     657.473E-03
             346             959     661.467E-03     657.473E-03
             347             960     718.370E-03     713.260E-03
             363             960     718.370E-03     713.260E-03
             348             960     718.370E-03     713.260E-03
             364             960     718.370E-03     713.260E-03
             348             961     771.805E-03     764.988E-03
             364             961     771.805E-03     764.988E-03
             349             961     771.805E-03     764.988E-03
             365             961     771.805E-03     764.988E-03
             365             962     819.065E-03     810.055E-03
             349             962     819.065E-03     810.055E-03
             366             962     819.065E-03     810.055E-03
             350             962     819.065E-03     810.055E-03
             350             963     853.133E-03     844.698E-03
             351             963     853.133E-03     844.698E-03
             367             963     853.133E-03     844.698E-03
             366             963     853.133E-03     844.698E-03
             367             964     869.119E-03     857.942E-03
             368             964     869.119E-03     857.942E-03
             352             964     869.119E-03     857.942E-03
             351             964     869.119E-03     857.942E-03
             353             965     150.293E-03     165.365E-03
             369             965     150.293E-03     165.365E-03
             370             965     150.293E-03     165.365E-03
             354             965     150.293E-03     165.365E-03
             370             966     183.718E-03     200.618E-03
             355             966     183.718E-03     200.618E-03
             354             966     183.718E-03     200.618E-03
             371             966     183.718E-03     200.618E-03
             356             967     236.269E-03     245.089E-03
             355             967     236.269E-03     245.089E-03
             371             967     236.269E-03     245.089E-03
             372             967     236.269E-03     245.089E-03
             356             968     293.769E-03     299.880E-03
             373             968     293.769E-03     299.880E-03
             372             968     293.769E-03     299.880E-03
             357             968     293.769E-03     299.880E-03
             373             969     353.622E-03     358.965E-03
             357             969     353.622E-03     358.965E-03
             358             969     353.622E-03     358.965E-03
             374             969     353.622E-03     358.965E-03
             358             970     415.066E-03     420.339E-03
             359             970     415.066E-03     420.339E-03
             375             970     415.066E-03     420.339E-03
             374             970     415.066E-03     420.339E-03
             375             971     477.607E-03     482.986E-03
             359             971     477.607E-03     482.986E-03
             376             971     477.607E-03     482.986E-03
             360             971     477.607E-03     482.986E-03
             361             972     540.939E-03     546.470E-03
             376             972     540.939E-03     546.470E-03
             377             972     540.939E-03     546.470E-03
             360             972     540.939E-03     546.470E-03
             361             973     605.042E-03     610.587E-03
             377             973     605.042E-03     610.587E-03
             362             973     605.042E-03     610.587E-03
             378             973     605.042E-03     610.587E-03
             362             974     669.279E-03     675.241E-03
             363             974     669.279E-03     675.241E-03
             379             974     669.279E-03     675.241E-03
             378             974     669.279E-03     675.241E-03
             379             975     733.742E-03     739.976E-03
             363             975     733.742E-03     739.976E-03
             380             975     733.742E-03     739.976E-03
             364             975     733.742E-03     739.976E-03
             365             976     796.190E-03     803.971E-03
             364             976     796.190E-03     803.971E-03
             380             976     796.190E-03     803.971E-03
             381             976     796.190E-03     803.971E-03
             382             977     852.665E-03     863.833E-03
             365             977     852.665E-03     863.833E-03
             366             977     852.665E-03     863.833E-03
             381             977     852.665E-03     863.833E-03
             383             978     898.503E-03     912.486E-03
             367             978     898.503E-03     912.486E-03
             366             978     898.503E-03     912.486E-03
             382             978     898.503E-03     912.486E-03
             367             979     933.227E-03     946.630E-03
             368             979     933.227E-03     946.630E-03
             383             979     933.227E-03     946.630E-03
             384             979     933.227E-03     946.630E-03
             370             980     118.583E-03     127.098E-03
             369             980     118.583E-03     127.098E-03
             386             980     118.583E-03     127.098E-03
             385             980     118.583E-03     127.098E-03
             387             981     158.892E-03     177.429E-03
             371             981     158.892E-03     177.429E-03
             386             981     158.892E-03     177.429E-03
             370             981     158.892E-03     177.429E-03
             387             982     214.502E-03     232.160E-03
             372             982     214.502E-03     232.160E-03
             371             982     214.502E-03     232.160E-03
             388             982     214.502E-03     232.160E-03
             372             983     276.682E-03     290.902E-03
             388             983     276.682E-03     290.902E-03
             389             983     276.682E-03     290.902E-03
             373             983     276.682E-03     290.902E-03
             389             984     340.227E-03     353.641E-03
             374             984     340.227E-03     353.641E-03
             390             984     340.227E-03     353.641E-03
             373             984     340.227E-03     353.641E-03
             374             985     404.679E-03     418.007E-03
             390             985     404.679E-03     418.007E-03
             391             985     404.679E-03     418.007E-03
             375             985     404.679E-03     418.007E-03
             391             986     469.985E-03     483.508E-03
             392             986     469.985E-03     483.508E-03
             375             986     469.985E-03     483.508E-03
             376             986     469.985E-03     483.508E-03
             392             987     536.031E-03     549.925E-03
             393             987     536.031E-03     549.925E-03
             377             987     536.031E-03     549.925E-03
             376             987     536.031E-03     549.925E-03
             378             988     602.797E-03     617.286E-03
             393             988     602.797E-03     617.286E-03
             394             988     602.797E-03     617.286E-03
             377             988     602.797E-03     617.286E-03
             394             989     670.509E-03     685.939E-03
             378             989     670.509E-03     685.939E-03
             395             989     670.509E-03     685.939E-03
             379             989     670.509E-03     685.939E-03
             395             990     738.579E-03     755.874E-03
             396             990     738.579E-03     755.874E-03
             380             990     738.579E-03     755.874E-03
             379             990     738.579E-03     755.874E-03
             380             991     807.965E-03     827.507E-03
             396             991     807.965E-03     827.507E-03
             381             991     807.965E-03     827.507E-03
             397             991     807.965E-03     827.507E-03
             382             992     875.413E-03     898.374E-03
             381             992     875.413E-03     898.374E-03
             397             992     875.413E-03     898.374E-03
             398             992     875.413E-03     898.374E-03
             383             993     935.236E-03     961.396E-03
             382             993     935.236E-03     961.396E-03
             399             993     935.236E-03     961.396E-03
             398             993     935.236E-03     961.396E-03
             384             994     991.746E-03         1.01077
             400             994     991.746E-03         1.01077
             399             994     991.746E-03         1.01077
             383             994     991.746E-03         1.01077
             401             995     87.7709E-03     102.521E-03
             386             995     87.7709E-03     102.521E-03
             385             995     87.7709E-03     102.521E-03
             402             995     87.7709E-03     102.521E-03
             386             996     136.941E-03     159.516E-03
             403             996     136.941E-03     159.516E-03
             402             996     136.941E-03     159.516E-03
             387             996     136.941E-03     159.516E-03
             388             997     198.263E-03     221.675E-03
             387             997     198.263E-03     221.675E-03
             404             997     198.263E-03     221.675E-03
             403             997     198.263E-03     221.675E-03
             388             998     262.663E-03     285.073E-03
             404             998     262.663E-03     285.073E-03
             405             998     262.663E-03     285.073E-03
             389             998     262.663E-03     285.073E-03
             390             999     328.226E-03     350.046E-03
             406             999     328.226E-03     350.046E-03
             389             999     328.226E-03     350.046E-03
             405             999     328.226E-03     350.046E-03
             406            1000     394.255E-03     416.062E-03
             391            1000     394.255E-03     416.062E-03
             390            1000     394.255E-03     416.062E-03
             407            1000     394.255E-03     416.062E-03
             408            1001     460.679E-03     482.700E-03
             392            1001     460.679E-03     482.700E-03
             407            1001     460.679E-03     482.700E-03
             391            1001     460.679E-03     482.700E-03
             408            1002     527.624E-03     549.968E-03
             392            1002     527.624E-03     549.968E-03
             393            1002     527.624E-03     549.968E-03
             409            1002     527.624E-03     549.968E-03
             394            1003     595.060E-03     618.079E-03
             393            1003     595.060E-03     618.079E-03
             409            1003     595.060E-03     618.079E-03
             410            1003     595.060E-03     618.079E-03
             395            1004     663.271E-03     687.257E-03
             410            1004     663.271E-03     687.257E-03
             411            1004     663.271E-03     687.257E-03
             394            1004     663.271E-03     687.257E-03
             395            1005     732.785E-03     758.653E-03
             412            1005     732.785E-03     758.653E-03
             396            1005     732.785E-03     758.653E-03
             411            1005     732.785E-03     758.653E-03
             397            1006     804.003E-03     832.331E-03
             413            1006     804.003E-03     832.331E-03
             412            1006     804.003E-03     832.331E-03
             396            1006     804.003E-03     832.331E-03
             397            1007     882.349E-03     911.133E-03
             413            1007     882.349E-03     911.133E-03
             414            1007     882.349E-03     911.133E-03
             398            1007     882.349E-03     911.133E-03
             415            1008     964.280E-03     991.291E-03
             398            1008     964.280E-03     991.291E-03
             399            1008     964.280E-03     991.291E-03
             414            1008     964.280E-03     991.291E-03
             399            1009         1.03882         1.06326
             416            1009         1.03882         1.06326
             400            1009         1.03882         1.06326
             415            1009         1.03882         1.06326
             402            1010     61.8216E-03     88.0851E-03
             401            1010     61.8216E-03     88.0851E-03
             417            1010     61.8216E-03     88.0851E-03
             418            1010     61.8216E-03     88.0851E-03
             418            1011     122.241E-03     150.635E-03
             402            1011     122.241E-03     150.635E-03
             403            1011     122.241E-03     150.635E-03
             419            1011     122.241E-03     150.635E-03
             420            1012     186.781E-03     215.733E-03
             419            1012     186.781E-03     215.733E-03
             403            1012     186.781E-03     215.733E-03
             404            1012     186.781E-03     215.733E-03
             404            1013     251.812E-03     282.209E-03
             405            1013     251.812E-03     282.209E-03
             421            1013     251.812E-03     282.209E-03
             420            1013     251.812E-03     282.209E-03
             406            1014     317.633E-03     348.118E-03
             421            1014     317.633E-03     348.118E-03
             422            1014     317.633E-03     348.118E-03
             405            1014     317.633E-03     348.118E-03
             422            1015     383.631E-03     414.242E-03
             423            1015     383.631E-03     414.242E-03
             407            1015     383.631E-03     414.242E-03
             406            1015     383.631E-03     414.242E-03
             408            1016     449.756E-03     480.475E-03
             407            1016     449.756E-03     480.475E-03
             424            1016     449.756E-03     480.475E-03
             423            1016     449.756E-03     480.475E-03
             425            1017     515.924E-03     546.785E-03
             409            1017     515.924E-03     546.785E-03
             408            1017     515.924E-03     546.785E-03
             424            1017     515.924E-03     546.785E-03
             409            1018     582.398E-03     613.343E-03
             410            1018     582.398E-03     613.343E-03
             425            1018     582.398E-03     613.343E-03
             426            1018     582.398E-03     613.343E-03
             411            1019     649.094E-03     680.604E-03
             426            1019     649.094E-03     680.604E-03
             427            1019     649.094E-03     680.604E-03
             410            1019     649.094E-03     680.604E-03
             411            1020     717.277E-03     749.259E-03
             427            1020     717.277E-03     749.259E-03
             428            1020     717.277E-03     749.259E-03
             412            1020     717.277E-03     749.259E-03
             428            1021     788.321E-03     821.584E-03
             429            1021     788.321E-03     821.584E-03
             413            1021     788.321E-03     821.584E-03
             412            1021     788.321E-03     821.584E-03
             413            1022     866.689E-03     900.455E-03
             429            1022     866.689E-03     900.455E-03
             414            1022     866.689E-03     900.455E-03
             430            1022     866.689E-03     900.455E-03
             415            1023     969.788E-03     996.864E-03
             414            1023     969.788E-03     996.864E-03
             430            1023     969.788E-03     996.864E-03
             431            1023     969.788E-03     996.864E-03
             416            1024         1.08180         1.09571
             415            1024         1.08180         1.09571
             432            1024         1.08180         1.09571
             431            1024         1.08180         1.09571
             418            1025     57.4785E-03     87.4644E-03
             433            1025     57.4785E-03     87.4644E-03
             434            1025     57.4785E-03     87.4644E-03
             417            1025     57.4785E-03     87.4644E-03
             419            1026     118.708E-03     150.525E-03
             434            1026     118.708E-03     150.525E-03
             435            1026     118.708E-03     150.525E-03
             418            1026     118.708E-03     150.525E-03
             419            1027     180.731E-03     217.357E-03
             420            1027     180.731E-03     217.357E-03
             435            1027     180.731E-03     217.357E-03
             436            1027     180.731E-03     217.357E-03
             437            1028     244.742E-03     283.198E-03
             420            1028     244.742E-03     283.198E-03
             421            1028     244.742E-03     283.198E-03
             436            1028     244.742E-03     283.198E-03
             437            1029     309.102E-03     348.630E-03
             422            1029     309.102E-03     348.630E-03
             438            1029     309.102E-03     348.630E-03
             421            1029     309.102E-03     348.630E-03
             422            1030     373.723E-03     413.447E-03
             438            1030     373.723E-03     413.447E-03
             423            1030     373.723E-03     413.447E-03
             439            1030     373.723E-03     413.447E-03
             423            1031     438.214E-03     477.873E-03
             440            1031     438.214E-03     477.873E-03
             439            1031     438.214E-03     477.873E-03
             424            1031     438.214E-03     477.873E-03
             425            1032     502.514E-03     541.922E-03
             440            1032     502.514E-03     541.922E-03
             424            1032     502.514E-03     541.922E-03
             441            1032     502.514E-03     541.922E-03
             441            1033     566.500E-03     605.511E-03
             426            1033     566.500E-03     605.511E-03
             425            1033     566.500E-03     605.511E-03
             442            1033     566.500E-03     605.511E-03
             427            1034     630.860E-03     669.040E-03
             426            1034     630.860E-03     669.040E-03
             443            1034     630.860E-03     669.040E-03
             442            1034     630.860E-03     669.040E-03
             428            1035     695.786E-03     732.912E-03
             443            1035     695.786E-03     732.912E-03
             444            1035     695.786E-03     732.912E-03
             427            1035     695.786E-03     732.912E-03
             429            1036     764.627E-03     799.989E-03
             444            1036     764.627E-03     799.989E-03
             445            1036     764.627E-03     799.989E-03
             428            1036     764.627E-03     799.989E-03
             445            1037     839.734E-03     873.357E-03
             446            1037     839.734E-03     873.357E-03
             430            1037     839.734E-03     873.357E-03
             429            1037     839.734E-03     873.357E-03
             430            1038     936.674E-03     969.783E-03
             446            1038     936.674E-03     969.783E-03
             431            1038     936.674E-03     969.783E-03
             447            1038     936.674E-03     969.783E-03
             431            1039         1.08479         1.10901
             448            1039         1.08479         1.10901
             447            1039         1.08479         1.10901
             432            1039         1.08479         1.10901
             434            1040     136.562E-03     159.248E-03
             449            1040     136.562E-03     159.248E-03
             450            1040     136.562E-03     159.248E-03
             433            1040     136.562E-03     159.248E-03
             435            1041     190.982E-03     207.531E-03
             450            1041     190.982E-03     207.531E-03
             451            1041     190.982E-03     207.531E-03
             434            1041     190.982E-03     207.531E-03
             436            1042     250.424E-03     268.763E-03
             451            1042     250.424E-03     268.763E-03
             452            1042     250.424E-03     268.763E-03
             435            1042     250.424E-03     268.763E-03
             436            1043     314.935E-03     335.020E-03
             452            1043     314.935E-03     335.020E-03
             453            1043     314.935E-03     335.020E-03
             437            1043     314.935E-03     335.020E-03
             453            1044     382.282E-03     402.740E-03
             454            1044     382.282E-03     402.740E-03
             437            1044     382.282E-03     402.740E-03
             438            1044     382.282E-03     402.740E-03
             454            1045     450.933E-03     471.452E-03
             455            1045     450.933E-03     471.452E-03
             438            1045     450.933E-03     471.452E-03
             439            1045     450.933E-03     471.452E-03
             456            1046     520.116E-03     540.265E-03
             440            1046     520.116E-03     540.265E-03
             439            1046     520.116E-03     540.265E-03
             455            1046     520.116E-03     540.265E-03
             456            1047     589.092E-03     609.074E-03
             441            1047     589.092E-03     609.074E-03
             457            1047     589.092E-03     609.074E-03
             440            1047     589.092E-03     609.074E-03
             458            1048     657.830E-03     677.019E-03
             441            1048     657.830E-03     677.019E-03
             457            1048     657.830E-03     677.019E-03
             442            1048     657.830E-03     677.019E-03
             443            1049     725.748E-03     744.094E-03
             458            1049     725.748E-03     744.094E-03
             459            1049     725.748E-03     744.094E-03
             442            1049     725.748E-03     744.094E-03
             460            1050     793.653E-03     809.627E-03
             443            1050     793.653E-03     809.627E-03
             444            1050     793.653E-03     809.627E-03
             459            1050     793.653E-03     809.627E-03
             461            1051     860.166E-03     873.243E-03
             444            1051     860.166E-03     873.243E-03
             460            1051     860.166E-03     873.243E-03
             445            1051     860.166E-03     873.243E-03
             445            1052     928.679E-03     936.564E-03
             446            1052     928.679E-03     936.564E-03
             461            1052     928.679E-03     936.564E-03
             462            1052     928.679E-03     936.564E-03
             447            1053     996.276E-03         1.00141
             462            1053     996.276E-03         1.00141
             463            1053     996.276E-03         1.00141
             446            1053     996.276E-03         1.00141
             463            1054         1.08312         1.10207
             464            1054         1.08312         1.10207
             447            1054         1.08312         1.10207
             448            1054         1.08312         1.10207
             465            1055     189.237E-03     213.453E-03
             466            1055     189.237E-03     213.453E-03
             449            1055     189.237E-03     213.453E-03
             450            1055     189.237E-03     213.453E-03
             450            1056     240.471E-03     247.455E-03
             466            1056     240.471E-03     247.455E-03
             467            1056     240.471E-03     247.455E-03
             451            1056     240.471E-03     247.455E-03
             451            1057     304.558E-03     306.773E-03
             468            1057     304.558E-03     306.773E-03
             452            1057     304.558E-03     306.773E-03
             467            1057     304.558E-03     306.773E-03
             468            1058     374.893E-03     376.494E-03
             452            1058     374.893E-03     376.494E-03
             453            1058     374.893E-03     376.494E-03
             469            1058     374.893E-03     376.494E-03
             470            1059     448.823E-03     450.234E-03
             453            1059     448.823E-03     450.234E-03
             454            1059     448.823E-03     450.234E-03
             469            1059     448.823E-03     450.234E-03
             470            1060     524.880E-03     526.289E-03
             454            1060     524.880E-03     526.289E-03
             455            1060     524.880E-03     526.289E-03
             471            1060     524.880E-03     526.289E-03
             455            1061     602.027E-03     603.303E-03
             456            1061     602.027E-03     603.303E-03
             472            1061     602.027E-03     603.303E-03
             471            1061     602.027E-03     603.303E-03
             457            1062     679.536E-03     680.813E-03
             473            1062     679.536E-03     680.813E-03
             456            1062     679.536E-03     680.813E-03
             472            1062     679.536E-03     680.813E-03
             458            1063     757.241E-03     758.150E-03
             474            1063     757.241E-03     758.150E-03
             457            1063     757.241E-03     758.150E-03
             473            1063     757.241E-03     758.150E-03
             474            1064     834.364E-03     835.031E-03
             475            1064     834.364E-03     835.031E-03
             458            1064     834.364E-03     835.031E-03
             459            1064     834.364E-03     835.031E-03
             475            1065     910.826E-03     910.311E-03
             476            1065     910.826E-03     910.311E-03
             460            1065     910.826E-03     910.311E-03
             459            1065     910.826E-03     910.311E-03
             460            1066     984.973E-03     983.060E-03
             476            1066     984.973E-03     983.060E-03
             477            1066     984.973E-03     983.060E-03
             461            1066     984.973E-03     983.060E-03
             477            1067         1.05234         1.04946
             462            1067         1.05234         1.04946
             461            1067         1.05234         1.04946
             478            1067         1.05234         1.04946
             462            1068         1.10950         1.10524
             478            1068         1.10950         1.10524
             479            1068         1.10950         1.10524
             463            1068         1.10950         1.10524
             464            1069         1.14645         1.14014
             479            1069         1.14645         1.14014
             480            1069         1.14645         1.14014
             463            1069         1.14645         1.14014
             481            1070     150.072E-03     169.423E-03
             466            1070     150.072E-03     169.423E-03
             465            1070     150.072E-03     169.423E-03
             482            1070     150.072E-03     169.423E-03
             482            1071     201.639E-03     223.098E-03
             483            1071     201.639E-03     223.098E-03
             467            1071     201.639E-03     223.098E-03
             466            1071     201.639E-03     223.098E-03
             484            1072     274.363E-03     288.026E-03
             483            1072     274.363E-03     288.026E-03
             467            1072     274.363E-03     288.026E-03
             468            1072     274.363E-03     288.026E-03
             485            1073     351.469E-03     362.795E-03
             484            1073     351.469E-03     362.795E-03
             469            1073     351.469E-03     362.795E-03
             468            1073     351.469E-03     362.795E-03
             469            1074     430.212E-03     441.427E-03
             485            1074     430.212E-03     441.427E-03
             470            1074     430.212E-03     441.427E-03
             486            1074     430.212E-03     441.427E-03
             487            1075     510.320E-03     521.731E-03
             470            1075     510.320E-03     521.731E-03
             486            1075     510.320E-03     521.731E-03
             471            1075     510.320E-03     521.731E-03
             471            1076     591.225E-03     602.964E-03
             487            1076     591.225E-03     602.964E-03
             488            1076     591.225E-03     602.964E-03
             472            1076     591.225E-03     602.964E-03
             472            1077     672.976E-03     684.805E-03
             488            1077     672.976E-03     684.805E-03
             489            1077     672.976E-03     684.805E-03
             473            1077     672.976E-03     684.805E-03
             473            1078     755.242E-03     767.305E-03
             490            1078     755.242E-03     767.305E-03
             489            1078     755.242E-03     767.305E-03
             474            1078     755.242E-03     767.305E-03
             475            1079     838.398E-03     850.650E-03
             490            1079     838.398E-03     850.650E-03
             491            1079     838.398E-03     850.650E-03
             474            1079     838.398E-03     850.650E-03
             475            1080     921.707E-03     934.897E-03
             476            1080     921.707E-03     934.897E-03
             492            1080     921.707E-03     934.897E-03
             491            1080     921.707E-03     934.897E-03
             477            1081         1.00616         1.02059
             492            1081         1.00616         1.02059
             476            1081         1.00616         1.02059
             493            1081         1.00616         1.02059
             477            1082         1.08791         1.10588
             494            1082         1.08791         1.10588
             493            1082         1.08791         1.10588
             478            1082         1.08791         1.10588
             495            1083         1.15950         1.18337
             478            1083         1.15950         1.18337
             479            1083         1.15950         1.18337
             494            1083         1.15950         1.18337
             479            1084         1.22054         1.23742
             495            1084         1.22054         1.23742
             480            1084         1.22054         1.23742
             496            1084         1.22054         1.23742
             481            1085     110.212E-03     128.573E-03
             498            1085     110.212E-03     128.573E-03
             482            1085     110.212E-03     128.573E-03
             497            1085     110.212E-03     128.573E-03
             499            1086     172.982E-03     201.930E-03
             483            1086     172.982E-03     201.930E-03
             498            1086     172.982E-03     201.930E-03
             482            1086     172.982E-03     201.930E-03
             483            1087     251.184E-03     276.089E-03
             484            1087     251.184E-03     276.089E-03
             500            1087     251.184E-03     276.089E-03
             499            1087     251.184E-03     276.089E-03
             485            1088     332.870E-03     355.074E-03
             501            1088     332.870E-03     355.074E-03
             484            1088     332.870E-03     355.074E-03
             500            1088     332.870E-03     355.074E-03
             486            1089     414.955E-03     437.041E-03
             501            1089     414.955E-03     437.041E-03
             502            1089     414.955E-03     437.041E-03
             485            1089     414.955E-03     437.041E-03
             486            1090     497.516E-03     519.865E-03
             503            1090     497.516E-03     519.865E-03
             502            1090     497.516E-03     519.865E-03
             487            1090     497.516E-03     519.865E-03
             503            1091     580.755E-03     603.359E-03
             504            1091     580.755E-03     603.359E-03
             488            1091     580.755E-03     603.359E-03
             487            1091     580.755E-03     603.359E-03
             488            1092     664.517E-03     687.391E-03
             505            1092     664.517E-03     687.391E-03
             489            1092     664.517E-03     687.391E-03
             504            1092     664.517E-03     687.391E-03
             490            1093     749.016E-03     772.191E-03
             505            1093     749.016E-03     772.191E-03
             506            1093     749.016E-03     772.191E-03
             489            1093     749.016E-03     772.191E-03
             490            1094     834.182E-03     858.066E-03
             506            1094     834.182E-03     858.066E-03
             491            1094     834.182E-03     858.066E-03
             507            1094     834.182E-03     858.066E-03
             491            1095     920.719E-03     946.154E-03
             492            1095     920.719E-03     946.154E-03
             508            1095     920.719E-03     946.154E-03
             507            1095     920.719E-03     946.154E-03
             508            1096         1.00795         1.03671
             492            1096         1.00795         1.03671
             493            1096         1.00795         1.03671
             509            1096         1.00795         1.03671
             493            1097         1.10175         1.13269
             509            1097         1.10175         1.13269
             494            1097         1.10175         1.13269
             510            1097         1.10175         1.13269
             495            1098         1.19507         1.22728
             511            1098         1.19507         1.22728
             510            1098         1.19507         1.22728
             494            1098         1.19507         1.22728
             511            1099         1.27462         1.30902
             512            1099         1.27462         1.30902
             496            1099         1.27462         1.30902
             495            1099         1.27462         1.30902
             514            1100     76.5465E-03     113.199E-03
             498            1100     76.5465E-03     113.199E-03
             497            1100     76.5465E-03     113.199E-03
             513            1100     76.5465E-03     113.199E-03
             499            1101     155.066E-03     188.073E-03
             514            1101     155.066E-03     188.073E-03
             515            1101     155.066E-03     188.073E-03
             498            1101     155.066E-03     188.073E-03
             499            1102     236.653E-03     270.678E-03
             515            1102     236.653E-03     270.678E-03
             516            1102     236.653E-03     270.678E-03
             500            1102     236.653E-03     270.678E-03
             501            1103     319.472E-03     353.152E-03
             516            1103     319.472E-03     353.152E-03
             517            1103     319.472E-03     353.152E-03
             500            1103     319.472E-03     353.152E-03
             501            1104     402.671E-03     436.266E-03
             517            1104     402.671E-03     436.266E-03
             518            1104     402.671E-03     436.266E-03
             502            1104     402.671E-03     436.266E-03
             502            1105     486.003E-03     519.811E-03
             519            1105     486.003E-03     519.811E-03
             518            1105     486.003E-03     519.811E-03
             503            1105     486.003E-03     519.811E-03
             503            1106     569.502E-03     603.475E-03
             519            1106     569.502E-03     603.475E-03
             504            1106     569.502E-03     603.475E-03
             520            1106     569.502E-03     603.475E-03
             504            1107     653.208E-03     687.276E-03
             521            1107     653.208E-03     687.276E-03
             505            1107     653.208E-03     687.276E-03
             520            1107     653.208E-03     687.276E-03
             506            1108     737.183E-03     771.359E-03
             505            1108     737.183E-03     771.359E-03
             521            1108     737.183E-03     771.359E-03
             522            1108     737.183E-03     771.359E-03
             507            1109     821.418E-03     856.009E-03
             522            1109     821.418E-03     856.009E-03
             523            1109     821.418E-03     856.009E-03
             506            1109     821.418E-03     856.009E-03
             523            1110     906.448E-03     941.900E-03
             524            1110     906.448E-03     941.900E-03
             508            1110     906.448E-03     941.900E-03
             507            1110     906.448E-03     941.900E-03
             509            1111     993.522E-03         1.03100
             524            1111     993.522E-03         1.03100
             525            1111     993.522E-03         1.03100
             508            1111     993.522E-03         1.03100
             525            1112         1.08546         1.12532
             526            1112         1.08546         1.12532
             510            1112         1.08546         1.12532
             509            1112         1.08546         1.12532
             527            1113         1.20007         1.23566
             511            1113         1.20007         1.23566
             510            1113         1.20007         1.23566
             526            1113         1.20007         1.23566
             512            1114         1.32157         1.33957
             511            1114         1.32157         1.33957
             528            1114         1.32157         1.33957
             527            1114         1.32157         1.33957
             530            1115     73.8218E-03     111.899E-03
             529            1115     73.8218E-03     111.899E-03
             514            1115     73.8218E-03     111.899E-03
             513            1115     73.8218E-03     111.899E-03
             531            1116     151.391E-03     190.174E-03
             515            1116     151.391E-03     190.174E-03
             530            1116     151.391E-03     190.174E-03
             514            1116     151.391E-03     190.174E-03
             516            1117     230.895E-03     273.817E-03
             532            1117     230.895E-03     273.817E-03
             531            1117     230.895E-03     273.817E-03
             515            1117     230.895E-03     273.817E-03
             533            1118     312.009E-03     357.180E-03
             532            1118     312.009E-03     357.180E-03
             516            1118     312.009E-03     357.180E-03
             517            1118     312.009E-03     357.180E-03
             533            1119     394.036E-03     439.527E-03
             518            1119     394.036E-03     439.527E-03
             517            1119     394.036E-03     439.527E-03
             534            1119     394.036E-03     439.527E-03
             518            1120     476.247E-03     521.829E-03
             519            1120     476.247E-03     521.829E-03
             534            1120     476.247E-03     521.829E-03
             535            1120     476.247E-03     521.829E-03
             520            1121     558.229E-03     603.720E-03
             519            1121     558.229E-03     603.720E-03
             535            1121     558.229E-03     603.720E-03
             536            1121     558.229E-03     603.720E-03
             520            1122     639.931E-03     685.344E-03
             521            1122     639.931E-03     685.344E-03
             537            1122     639.931E-03     685.344E-03
             536            1122     639.931E-03     685.344E-03
             521            1123     721.114E-03     766.298E-03
             538            1123     721.114E-03     766.298E-03
             522            1123     721.114E-03     766.298E-03
             537            1123     721.114E-03     766.298E-03
             522            1124     802.094E-03     846.892E-03
             523            1124     802.094E-03     846.892E-03
             538            1124     802.094E-03     846.892E-03
             539            1124     802.094E-03     846.892E-03
             539            1125     882.822E-03     926.860E-03
             540            1125     882.822E-03     926.860E-03
             523            1125     882.822E-03     926.860E-03
             524            1125     882.822E-03     926.860E-03
             540            1126     966.022E-03         1.00851
             525            1126     966.022E-03         1.00851
             524            1126     966.022E-03         1.00851
             541            1126     966.022E-03         1.00851
             525            1127         1.05293         1.09414
             526            1127         1.05293         1.09414
             542            1127         1.05293         1.09414
             541            1127         1.05293         1.09414
             526            1128         1.16055         1.19984
             542            1128         1.16055         1.19984
             543            1128         1.16055         1.19984
             527            1128         1.16055         1.19984
             527            1129         1.31823         1.34685
             528            1129         1.31823         1.34685
             544            1129         1.31823         1.34685
             543            1129         1.31823         1.34685
             994            1451     134.429E-03     152.198E-03
            1010            1451     134.429E-03     152.198E-03
            1011            1451     134.429E-03     152.198E-03
             995            1451     134.429E-03     152.198E-03
             996            1452     214.106E-03     225.358E-03
            1011            1452     214.106E-03     225.358E-03
            1012            1452     214.106E-03     225.358E-03
             995            1452     214.106E-03     225.358E-03
             997            1453     298.241E-03     308.424E-03
            1012            1453     298.241E-03     308.424E-03
            1013            1453     298.241E-03     308.424E-03
             996            1453     298.241E-03     308.424E-03
             997            1454     386.209E-03     396.137E-03
            1014            1454     386.209E-03     396.137E-03
            1013            1454     386.209E-03     396.137E-03
             998            1454     386.209E-03     396.137E-03
             999            1455     476.118E-03     485.652E-03
            1014            1455     476.118E-03     485.652E-03
            1015            1455     476.118E-03     485.652E-03
             998            1455     476.118E-03     485.652E-03
            1015            1456     566.789E-03     576.261E-03
            1016            1456     566.789E-03     576.261E-03
            1000            1456     566.789E-03     576.261E-03
             999            1456     566.789E-03     576.261E-03
            1000            1457     657.973E-03     667.215E-03
            1017            1457     657.973E-03     667.215E-03
            1001            1457     657.973E-03     667.215E-03
            1016            1457     657.973E-03     667.215E-03
            1001            1458     749.118E-03     758.594E-03
            1017            1458     749.118E-03     758.594E-03
            1002            1458     749.118E-03     758.594E-03
            1018            1458     749.118E-03     758.594E-03
            1019            1459     840.302E-03     849.485E-03
            1002            1459     840.302E-03     849.485E-03
            1003            1459     840.302E-03     849.485E-03
            1018            1459     840.302E-03     849.485E-03
            1003            1460     930.913E-03     940.484E-03
            1020            1460     930.913E-03     940.484E-03
            1019            1460     930.913E-03     940.484E-03
            1004            1460     930.913E-03     940.484E-03
            1004            1461         1.02098         1.03004
            1021            1461         1.02098         1.03004
            1020            1461         1.02098         1.03004
            1005            1461         1.02098         1.03004
            1005            1462         1.11028         1.11893
            1021            1462         1.11028         1.11893
            1022            1462         1.11028         1.11893
            1006            1462         1.11028         1.11893
            1022            1463         1.19708         1.20481
            1023            1463         1.19708         1.20481
            1007            1463         1.19708         1.20481
            1006            1463         1.19708         1.20481
            1023            1464         1.27482         1.28173
            1008            1464         1.27482         1.28173
            1007            1464         1.27482         1.28173
            1024            1464         1.27482         1.28173
            1009            1465         1.33956         1.34878
            1024            1465         1.33956         1.34878
            1008            1465         1.33956         1.34878
            1025            1465         1.33956         1.34878
            1027            1466     168.209E-03     190.047E-03
            1010            1466     168.209E-03     190.047E-03
            1011            1466     168.209E-03     190.047E-03
            1026            1466     168.209E-03     190.047E-03
            1012            1467     240.861E-03     249.203E-03
            1028            1467     240.861E-03     249.203E-03
            1027            1467     240.861E-03     249.203E-03
            1011            1467     240.861E-03     249.203E-03
            1029            1468     327.398E-03     332.552E-03
            1013            1468     327.398E-03     332.552E-03
            1012            1468     327.398E-03     332.552E-03
            1028            1468     327.398E-03     332.552E-03
            1014            1469     419.148E-03     424.399E-03
            1030            1469     419.148E-03     424.399E-03
            1029            1469     419.148E-03     424.399E-03
            1013            1469     419.148E-03     424.399E-03
            1014            1470     513.467E-03     518.656E-03
            1015            1470     513.467E-03     518.656E-03
            1030            1470     513.467E-03     518.656E-03
            1031            1470     513.467E-03     518.656E-03
            1031            1471     609.059E-03     614.435E-03
            1015            1471     609.059E-03     614.435E-03
            1016            1471     609.059E-03     614.435E-03
            1032            1471     609.059E-03     614.435E-03
            1017            1472     705.531E-03     710.827E-03
            1032            1472     705.531E-03     710.827E-03
            1016            1472     705.531E-03     710.827E-03
            1033            1472     705.531E-03     710.827E-03
            1034            1473     802.176E-03     807.621E-03
            1018            1473     802.176E-03     807.621E-03
            1017            1473     802.176E-03     807.621E-03
            1033            1473     802.176E-03     807.621E-03
            1035            1474     899.104E-03     904.351E-03
            1018            1474     899.104E-03     904.351E-03
            1034            1474     899.104E-03     904.351E-03
            1019            1474     899.104E-03     904.351E-03
            1035            1475     995.529E-03         1.00103
            1020            1475     995.529E-03         1.00103
            1036            1475     995.529E-03         1.00103
            1019            1475     995.529E-03         1.00103
            1036            1476         1.09224         1.09730
            1020            1476         1.09224         1.09730
            1021            1476         1.09224         1.09730
            1037            1476         1.09224         1.09730
            1038            1477         1.18773         1.19330
            1022            1477         1.18773         1.19330
            1021            1477         1.18773         1.19330
            1037            1477         1.18773         1.19330
            1039            1478         1.28349         1.28822
            1038            1478         1.28349         1.28822
            1023            1478         1.28349         1.28822
            1022            1478         1.28349         1.28822
            1023            1479         1.37134         1.37596
            1024            1479         1.37134         1.37596
            1040            1479         1.37134         1.37596
            1039            1479         1.37134         1.37596
            1024            1480         1.43034         1.43959
            1025            1480         1.43034         1.43959
            1041            1480         1.43034         1.43959
            1040            1480         1.43034         1.43959
            1043            1481     118.372E-03     151.876E-03
            1042            1481     118.372E-03     151.876E-03
            1027            1481     118.372E-03     151.876E-03
            1026            1481     118.372E-03     151.876E-03
            1044            1482     199.737E-03     229.520E-03
            1043            1482     199.737E-03     229.520E-03
            1027            1482     199.737E-03     229.520E-03
            1028            1482     199.737E-03     229.520E-03
            1045            1483     295.012E-03     320.775E-03
            1029            1483     295.012E-03     320.775E-03
            1028            1483     295.012E-03     320.775E-03
            1044            1483     295.012E-03     320.775E-03
            1030            1484     391.992E-03     418.059E-03
            1029            1484     391.992E-03     418.059E-03
            1046            1484     391.992E-03     418.059E-03
            1045            1484     391.992E-03     418.059E-03
            1031            1485     489.237E-03     516.290E-03
            1047            1485     489.237E-03     516.290E-03
            1030            1485     489.237E-03     516.290E-03
            1046            1485     489.237E-03     516.290E-03
            1032            1486     587.439E-03     614.843E-03
            1031            1486     587.439E-03     614.843E-03
            1047            1486     587.439E-03     614.843E-03
            1048            1486     587.439E-03     614.843E-03
            1049            1487     686.048E-03     713.663E-03
            1048            1487     686.048E-03     713.663E-03
            1033            1487     686.048E-03     713.663E-03
            1032            1487     686.048E-03     713.663E-03
            1033            1488     785.100E-03     812.577E-03
            1049            1488     785.100E-03     812.577E-03
            1050            1488     785.100E-03     812.577E-03
            1034            1488     785.100E-03     812.577E-03
            1051            1489     884.335E-03     911.935E-03
            1035            1489     884.335E-03     911.935E-03
            1050            1489     884.335E-03     911.935E-03
            1034            1489     884.335E-03     911.935E-03
            1052            1490     984.141E-03         1.01149
            1035            1490     984.141E-03         1.01149
            1036            1490     984.141E-03         1.01149
            1051            1490     984.141E-03         1.01149
            1036            1491         1.08451         1.11216
            1053            1491         1.08451         1.11216
            1052            1491         1.08451         1.11216
            1037            1491         1.08451         1.11216
            1038            1492         1.18583         1.21438
            1054            1492         1.18583         1.21438
            1053            1492         1.18583         1.21438
            1037            1492         1.18583         1.21438
            1038            1493         1.28830         1.31948
            1054            1493         1.28830         1.31948
            1039            1493         1.28830         1.31948
            1055            1493         1.28830         1.31948
            1040            1494         1.40392         1.43592
            1056            1494         1.40392         1.43592
            1055            1494         1.40392         1.43592
            1039            1494         1.40392         1.43592
            1041            1495         1.51333         1.53082
            1040            1495         1.51333         1.53082
            1056            1495         1.51333         1.53082
            1057            1495         1.51333         1.53082
            1043            1496     88.5572E-03     126.546E-03
            1058            1496     88.5572E-03     126.546E-03
            1059            1496     88.5572E-03     126.546E-03
            1042            1496     88.5572E-03     126.546E-03
            1059            1497     178.317E-03     226.877E-03
            1043            1497     178.317E-03     226.877E-03
            1044            1497     178.317E-03     226.877E-03
            1060            1497     178.317E-03     226.877E-03
            1060            1498     275.382E-03     324.775E-03
            1061            1498     275.382E-03     324.775E-03
            1045            1498     275.382E-03     324.775E-03
            1044            1498     275.382E-03     324.775E-03
            1062            1499     373.835E-03     423.491E-03
            1046            1499     373.835E-03     423.491E-03
            1045            1499     373.835E-03     423.491E-03
            1061            1499     373.835E-03     423.491E-03
            1047            1500     472.577E-03     522.439E-03
            1062            1500     472.577E-03     522.439E-03
            1063            1500     472.577E-03     522.439E-03
            1046            1500     472.577E-03     522.439E-03
            1063            1501     571.489E-03     621.415E-03
            1064            1501     571.489E-03     621.415E-03
            1048            1501     571.489E-03     621.415E-03
            1047            1501     571.489E-03     621.415E-03
            1065            1502     670.457E-03     720.256E-03
            1064            1502     670.457E-03     720.256E-03
            1049            1502     670.457E-03     720.256E-03
            1048            1502     670.457E-03     720.256E-03
            1049            1503     769.226E-03     819.217E-03
            1050            1503     769.226E-03     819.217E-03
            1065            1503     769.226E-03     819.217E-03
            1066            1503     769.226E-03     819.217E-03
            1066            1504     867.963E-03     917.718E-03
            1067            1504     867.963E-03     917.718E-03
            1050            1504     867.963E-03     917.718E-03
            1051            1504     867.963E-03     917.718E-03
            1068            1505     966.301E-03         1.01633
            1067            1505     966.301E-03         1.01633
            1051            1505     966.301E-03         1.01633
            1052            1505     966.301E-03         1.01633
            1068            1506         1.06425         1.11397
            1069            1506         1.06425         1.11397
            1053            1506         1.06425         1.11397
            1052            1506         1.06425         1.11397
            1053            1507         1.16219         1.21187
            1069            1507         1.16219         1.21187
            1054            1507         1.16219         1.21187
            1070            1507         1.16219         1.21187
            1071            1508         1.26007         1.31033
            1055            1508         1.26007         1.31033
            1054            1508         1.26007         1.31033
            1070            1508         1.26007         1.31033
            1056            1509         1.37049         1.42014
            1055            1509         1.37049         1.42014
            1071            1509         1.37049         1.42014
            1072            1509         1.37049         1.42014
            1073            1510         1.51927         1.56044
            1072            1510         1.51927         1.56044
            1056            1510         1.51927         1.56044
            1057            1510         1.51927         1.56044
            1753            2102     189.426E-03     205.837E-03
            1770            2102     189.426E-03     205.837E-03
            1754            2102     189.426E-03     205.837E-03
            1769            2102     189.426E-03     205.837E-03
            1754            2103     240.003E-03     266.255E-03
            1755            2103     240.003E-03     266.255E-03
            1770            2103     240.003E-03     266.255E-03
            1771            2103     240.003E-03     266.255E-03
            1755            2104     314.730E-03     342.481E-03
            1756            2104     314.730E-03     342.481E-03
            1772            2104     314.730E-03     342.481E-03
            1771            2104     314.730E-03     342.481E-03
            1757            2105     398.949E-03     426.667E-03
            1772            2105     398.949E-03     426.667E-03
            1756            2105     398.949E-03     426.667E-03
            1773            2105     398.949E-03     426.667E-03
            1773            2106     487.383E-03     514.742E-03
            1758            2106     487.383E-03     514.742E-03
            1757            2106     487.383E-03     514.742E-03
            1774            2106     487.383E-03     514.742E-03
            1774            2107     577.825E-03     605.070E-03
            1758            2107     577.825E-03     605.070E-03
            1759            2107     577.825E-03     605.070E-03
            1775            2107     577.825E-03     605.070E-03
            1759            2108     669.691E-03     696.453E-03
            1760            2108     669.691E-03     696.453E-03
            1776            2108     669.691E-03     696.453E-03
            1775            2108     669.691E-03     696.453E-03
            1760            2109     761.874E-03     789.124E-03
            1761            2109     761.874E-03     789.124E-03
            1776            2109     761.874E-03     789.124E-03
            1777            2109     761.874E-03     789.124E-03
            1761            2110     855.410E-03     881.511E-03
            1777            2110     855.410E-03     881.511E-03
            1778            2110     855.410E-03     881.511E-03
            1762            2110     855.410E-03     881.511E-03
            1762            2111     948.008E-03     975.684E-03
            1779            2111     948.008E-03     975.684E-03
            1778            2111     948.008E-03     975.684E-03
            1763            2111     948.008E-03     975.684E-03
            1763            2112         1.04285         1.06816
            1764            2112         1.04285         1.06816
            1780            2112         1.04285         1.06816
            1779            2112         1.04285         1.06816
            1765            2113         1.13551         1.16355
            1781            2113         1.13551         1.16355
            1780            2113         1.13551         1.16355
            1764            2113         1.13551         1.16355
            1766            2114         1.23017         1.25565
            1765            2114         1.23017         1.25565
            1781            2114         1.23017         1.25565
            1782            2114         1.23017         1.25565
            1767            2115         1.32517         1.35072
            1783            2115         1.32517         1.35072
            1782            2115         1.32517         1.35072
            1766            2115         1.32517         1.35072
            1768            2116         1.41006         1.43990
            1783            2116         1.41006         1.43990
            1784            2116         1.41006         1.43990
            1767            2116         1.41006         1.43990
            1769            2117     176.181E-03     179.890E-03
            1786            2117     176.181E-03     179.890E-03
            1770            2117     176.181E-03     179.890E-03
            1785            2117     176.181E-03     179.890E-03
            1770            2118     229.962E-03     243.146E-03
            1786            2118     229.962E-03     243.146E-03
            1787            2118     229.962E-03     243.146E-03
            1771            2118     229.962E-03     243.146E-03
            1788            2119     297.723E-03     312.141E-03
            1771            2119     297.723E-03     312.141E-03
            1772            2119     297.723E-03     312.141E-03
            1787            2119     297.723E-03     312.141E-03
            1772            2120     375.804E-03     388.576E-03
            1773            2120     375.804E-03     388.576E-03
            1789            2120     375.804E-03     388.576E-03
            1788            2120     375.804E-03     388.576E-03
            1773            2121     457.402E-03     469.324E-03
            1789            2121     457.402E-03     469.324E-03
            1774            2121     457.402E-03     469.324E-03
            1790            2121     457.402E-03     469.324E-03
            1790            2122     540.635E-03     552.427E-03
            1774            2122     540.635E-03     552.427E-03
            1775            2122     540.635E-03     552.427E-03
            1791            2122     540.635E-03     552.427E-03
            1776            2123     625.337E-03     636.441E-03
            1791            2123     625.337E-03     636.441E-03
            1775            2123     625.337E-03     636.441E-03
            1792            2123     625.337E-03     636.441E-03
            1793            2124     710.252E-03     721.729E-03
            1776            2124     710.252E-03     721.729E-03
            1777            2124     710.252E-03     721.729E-03
            1792            2124     710.252E-03     721.729E-03
            1777            2125     796.446E-03     806.792E-03
            1794            2125     796.446E-03     806.792E-03
            1778            2125     796.446E-03     806.792E-03
            1793            2125     796.446E-03     806.792E-03
            1794            2126     881.780E-03     893.278E-03
            1779            2126     881.780E-03     893.278E-03
            1778            2126     881.780E-03     893.278E-03
            1795            2126     881.780E-03     893.278E-03
            1780            2127     968.868E-03     978.576E-03
            1795            2127     968.868E-03     978.576E-03
            1779            2127     968.868E-03     978.576E-03
            1796            2127     968.868E-03     978.576E-03
            1796            2128         1.05430         1.06559
            1780            2128         1.05430         1.06559
            1781            2128         1.05430         1.06559
            1797            2128         1.05430         1.06559
            1798            2129         1.13850         1.14728
            1797            2129         1.13850         1.14728
            1782            2129         1.13850         1.14728
            1781            2129         1.13850         1.14728
            1799            2130         1.23059         1.23905
            1782            2130         1.23059         1.23905
            1783            2130         1.23059         1.23905
            1798            2130         1.23059         1.23905
            1800            2131         1.33075         1.34953
            1799            2131         1.33075         1.34953
            1783            2131         1.33075         1.34953
            1784            2131         1.33075         1.34953
            1802            2132     159.252E-03     188.570E-03
            1786            2132     159.252E-03     188.570E-03
            1801            2132     159.252E-03     188.570E-03
            1785            2132     159.252E-03     188.570E-03
            1786            2133     190.839E-03     244.840E-03
            1787            2133     190.839E-03     244.840E-03
            1803            2133     190.839E-03     244.840E-03
            1802            2133     190.839E-03     244.840E-03
            1787            2134     247.420E-03     310.198E-03
            1804            2134     247.420E-03     310.198E-03
            1788            2134     247.420E-03     310.198E-03
            1803            2134     247.420E-03     310.198E-03
            1805            2135     316.471E-03     382.940E-03
            1788            2135     316.471E-03     382.940E-03
            1789            2135     316.471E-03     382.940E-03
            1804            2135     316.471E-03     382.940E-03
            1789            2136     390.238E-03     458.070E-03
            1806            2136     390.238E-03     458.070E-03
            1790            2136     390.238E-03     458.070E-03
            1805            2136     390.238E-03     458.070E-03
            1806            2137     465.931E-03     534.830E-03
            1807            2137     465.931E-03     534.830E-03
            1791            2137     465.931E-03     534.830E-03
            1790            2137     465.931E-03     534.830E-03
            1808            2138     543.046E-03     612.285E-03
            1807            2138     543.046E-03     612.285E-03
            1792            2138     543.046E-03     612.285E-03
            1791            2138     543.046E-03     612.285E-03
            1809            2139     620.727E-03     690.631E-03
            1792            2139     620.727E-03     690.631E-03
            1808            2139     620.727E-03     690.631E-03
            1793            2139     620.727E-03     690.631E-03
            1809            2140     699.207E-03     769.001E-03
            1793            2140     699.207E-03     769.001E-03
            1794            2140     699.207E-03     769.001E-03
            1810            2140     699.207E-03     769.001E-03
            1811            2141     777.853E-03     848.231E-03
            1810            2141     777.853E-03     848.231E-03
            1794            2141     777.853E-03     848.231E-03
            1795            2141     777.853E-03     848.231E-03
            1796            2142     857.022E-03     926.968E-03
            1812            2142     857.022E-03     926.968E-03
            1811            2142     857.022E-03     926.968E-03
            1795            2142     857.022E-03     926.968E-03
            1812            2143     936.757E-03         1.00704
            1813            2143     936.757E-03         1.00704
            1797            2143     936.757E-03         1.00704
            1796            2143     936.757E-03         1.00704
            1798            2144         1.01442         1.08555
            1814            2144         1.01442         1.08555
            1813            2144         1.01442         1.08555
            1797            2144         1.01442         1.08555
            1814            2145         1.10089         1.17118
            1798            2145         1.10089         1.17118
            1799            2145         1.10089         1.17118
            1815            2145         1.10089         1.17118
            1816            2146         1.23863         1.29966
            1800            2146         1.23863         1.29966
            1799            2146         1.23863         1.29966
            1815            2146         1.23863         1.29966
            1817            2147     218.077E-03     216.403E-03
            1818            2147     218.077E-03     216.403E-03
            1801            2147     218.077E-03     216.403E-03
            1802            2147     218.077E-03     216.403E-03
            1818            2148     260.931E-03     247.482E-03
            1802            2148     260.931E-03     247.482E-03
            1819            2148     260.931E-03     247.482E-03
            1803            2148     260.931E-03     247.482E-03
            1804            2149     319.108E-03     299.806E-03
            1820            2149     319.108E-03     299.806E-03
            1803            2149     319.108E-03     299.806E-03
            1819            2149     319.108E-03     299.806E-03
            1821            2150     385.244E-03     364.364E-03
            1820            2150     385.244E-03     364.364E-03
            1804            2150     385.244E-03     364.364E-03
            1805            2150     385.244E-03     364.364E-03
            1805            2151     456.238E-03     433.844E-03
            1822            2151     456.238E-03     433.844E-03
            1821            2151     456.238E-03     433.844E-03
            1806            2151     456.238E-03     433.844E-03
            1806            2152     529.941E-03     506.317E-03
            1823            2152     529.941E-03     506.317E-03
            1822            2152     529.941E-03     506.317E-03
            1807            2152     529.941E-03     506.317E-03
            1824            2153     605.074E-03     580.908E-03
            1807            2153     605.074E-03     580.908E-03
            1823            2153     605.074E-03     580.908E-03
            1808            2153     605.074E-03     580.908E-03
            1825            2154     681.433E-03     656.559E-03
            1824            2154     681.433E-03     656.559E-03
            1808            2154     681.433E-03     656.559E-03
            1809            2154     681.433E-03     656.559E-03
            1826            2155     758.150E-03     733.224E-03
            1809            2155     758.150E-03     733.224E-03
            1810            2155     758.150E-03     733.224E-03
            1825            2155     758.150E-03     733.224E-03
            1810            2156     835.602E-03     810.001E-03
            1811            2156     835.602E-03     810.001E-03
            1826            2156     835.602E-03     810.001E-03
            1827            2156     835.602E-03     810.001E-03
            1811            2157     912.500E-03     887.089E-03
            1827            2157     912.500E-03     887.089E-03
            1828            2157     912.500E-03     887.089E-03
            1812            2157     912.500E-03     887.089E-03
            1828            2158     990.232E-03     963.964E-03
            1812            2158     990.232E-03     963.964E-03
            1813            2158     990.232E-03     963.964E-03
            1829            2158     990.232E-03     963.964E-03
            1814            2159         1.06763         1.04235
            1829            2159         1.06763         1.04235
            1813            2159         1.06763         1.04235
            1830            2159         1.06763         1.04235
            1814            2160         1.14590         1.12035
            1815            2160         1.14590         1.12035
            1830            2160         1.14590         1.12035
            1831            2160         1.14590         1.12035
            1816            2161         1.16844         1.13270
            1831            2161         1.16844         1.13270
            1815            2161         1.16844         1.13270
            1832            2161         1.16844         1.13270
            2273            2468     14.6448E-15     14.1808E-15
            2289            2468     14.6448E-15     14.1808E-15
            2274            2468     14.6448E-15     14.1808E-15
            2290            2468     14.6448E-15     14.1808E-15
            2275            2469     16.7427E-15     15.1900E-15
            2290            2469     16.7427E-15     15.1900E-15
            2291            2469     16.7427E-15     15.1900E-15
            2274            2469     16.7427E-15     15.1900E-15
            2291            2470     18.4045E-15     16.9934E-15
            2292            2470     18.4045E-15     16.9934E-15
            2276            2470     18.4045E-15     16.9934E-15
            2275            2470     18.4045E-15     16.9934E-15
            2292            2471     11.0725E-15     12.2200E-15
            2293            2471     11.0725E-15     12.2200E-15
            2277            2471     11.0725E-15     12.2200E-15
            2276            2471     11.0725E-15     12.2200E-15
            2293            2472     8.08105E-15     6.99669E-15
            2277            2472     8.08105E-15     6.99669E-15
            2278            2472     8.08105E-15     6.99669E-15
            2294            2472     8.08105E-15     6.99669E-15
            2294            2473     8.32992E-15     9.55502E-15
            2279            2473     8.32992E-15     9.55502E-15
            2295            2473     8.32992E-15     9.55502E-15
            2278            2473     8.32992E-15     9.55502E-15
            2279            2474     10.6571E-15     11.2475E-15
            2296            2474     10.6571E-15     11.2475E-15
            2280            2474     10.6571E-15     11.2475E-15
            2295            2474     10.6571E-15     11.2475E-15
            2296            2475     13.4248E-15     10.9605E-15
            2281            2475     13.4248E-15     10.9605E-15
            2297            2475     13.4248E-15     10.9605E-15
            2280            2475     13.4248E-15     10.9605E-15
            2297            2476     12.7472E-15     13.4781E-15
            2282            2476     12.7472E-15     13.4781E-15
            2298            2476     12.7472E-15     13.4781E-15
            2281            2476     12.7472E-15     13.4781E-15
            2282            2477     16.6876E-15     18.6461E-15
            2299            2477     16.6876E-15     18.6461E-15
            2298            2477     16.6876E-15     18.6461E-15
            2283            2477     16.6876E-15     18.6461E-15
            2284            2478     16.6853E-15     18.3584E-15
            2283            2478     16.6853E-15     18.3584E-15
            2300            2478     16.6853E-15     18.3584E-15
            2299            2478     16.6853E-15     18.3584E-15
            2301            2479     10.8422E-15     13.6040E-15
            2284            2479     10.8422E-15     13.6040E-15
            2285            2479     10.8422E-15     13.6040E-15
            2300            2479     10.8422E-15     13.6040E-15
            2302            2480     9.93813E-15     11.5557E-15
            2285            2480     9.93813E-15     11.5557E-15
            2301            2480     9.93813E-15     11.5557E-15
            2286            2480     9.93813E-15     11.5557E-15
            2303            2481     12.1458E-15     11.4202E-15
            2286            2481     12.1458E-15     11.4202E-15
            2287            2481     12.1458E-15     11.4202E-15
            2302            2481     12.1458E-15     11.4202E-15
            2287            2482     21.2795E-15     20.6142E-15
            2288            2482     21.2795E-15     20.6142E-15
            2303            2482     21.2795E-15     20.6142E-15
            2304            2482     21.2795E-15     20.6142E-15
            2289            2483     13.4758E-15     11.9729E-15
            2305            2483     13.4758E-15     11.9729E-15
            2290            2483     13.4758E-15     11.9729E-15
            2306            2483     13.4758E-15     11.9729E-15
            2307            2484     17.4126E-15     16.8390E-15
            2306            2484     17.4126E-15     16.8390E-15
            2290            2484     17.4126E-15     16.8390E-15
            2291            2484     17.4126E-15     16.8390E-15
            2307            2485     20.6664E-15     20.3617E-15
            2292            2485     20.6664E-15     20.3617E-15
            2308            2485     20.6664E-15     20.3617E-15
            2291            2485     20.6664E-15     20.3617E-15
            2309            2486     14.1039E-15     14.2891E-15
            2293            2486     14.1039E-15     14.2891E-15
            2292            2486     14.1039E-15     14.2891E-15
            2308            2486     14.1039E-15     14.2891E-15
            2309            2487     5.43356E-15     5.40196E-15
            2310            2487     5.43356E-15     5.40196E-15
            2293            2487     5.43356E-15     5.40196E-15
            2294            2487     5.43356E-15     5.40196E-15
            2294            2488     6.36683E-15     9.84081E-15
            2310            2488     6.36683E-15     9.84081E-15
            2311            2488     6.36683E-15     9.84081E-15
            2295            2488     6.36683E-15     9.84081E-15
            2295            2489     8.99211E-15     11.2441E-15
            2312            2489     8.99211E-15     11.2441E-15
            2296            2489     8.99211E-15     11.2441E-15
            2311            2489     8.99211E-15     11.2441E-15
            2296            2490     8.71532E-15     7.38381E-15
            2312            2490     8.71532E-15     7.38381E-15
            2313            2490     8.71532E-15     7.38381E-15
            2297            2490     8.71532E-15     7.38381E-15
            2314            2491     11.5964E-15     12.0235E-15
            2313            2491     11.5964E-15     12.0235E-15
            2298            2491     11.5964E-15     12.0235E-15
            2297            2491     11.5964E-15     12.0235E-15
            2298            2492     15.9012E-15     17.3193E-15
            2314            2492     15.9012E-15     17.3193E-15
            2315            2492     15.9012E-15     17.3193E-15
            2299            2492     15.9012E-15     17.3193E-15
            2300            2493     14.1023E-15     15.5182E-15
            2316            2493     14.1023E-15     15.5182E-15
            2315            2493     14.1023E-15     15.5182E-15
            2299            2493     14.1023E-15     15.5182E-15
            2317            2494     8.31870E-15     11.9657E-15
            2300            2494     8.31870E-15     11.9657E-15
            2301            2494     8.31870E-15     11.9657E-15
            2316            2494     8.31870E-15     11.9657E-15
            2318            2495     9.61148E-15     11.4249E-15
            2301            2495     9.61148E-15     11.4249E-15
            2302            2495     9.61148E-15     11.4249E-15
            2317            2495     9.61148E-15     11.4249E-15
            2302            2496     12.5745E-15     11.3683E-15
            2319            2496     12.5745E-15     11.3683E-15
            2318            2496     12.5745E-15     11.3683E-15
            2303            2496     12.5745E-15     11.3683E-15
            2303            2497     12.4243E-15     16.0231E-15
            2304            2497     12.4243E-15     16.0231E-15
            2320            2497     12.4243E-15     16.0231E-15
            2319            2497     12.4243E-15     16.0231E-15
            2306            2498     12.4912E-15     11.8149E-15
            2321            2498     12.4912E-15     11.8149E-15
            2305            2498     12.4912E-15     11.8149E-15
            2322            2498     12.4912E-15     11.8149E-15
            2307            2499     18.8994E-15     19.5587E-15
            2306            2499     18.8994E-15     19.5587E-15
            2323            2499     18.8994E-15     19.5587E-15
            2322            2499     18.8994E-15     19.5587E-15
            2323            2500     20.8511E-15     20.7299E-15
            2307            2500     20.8511E-15     20.7299E-15
            2308            2500     20.8511E-15     20.7299E-15
            2324            2500     20.8511E-15     20.7299E-15
            2309            2501     14.7066E-15     14.5511E-15
            2325            2501     14.7066E-15     14.5511E-15
            2324            2501     14.7066E-15     14.5511E-15
            2308            2501     14.7066E-15     14.5511E-15
            2325            2502     11.5350E-15     11.7508E-15
            2309            2502     11.5350E-15     11.7508E-15
            2326            2502     11.5350E-15     11.7508E-15
            2310            2502     11.5350E-15     11.7508E-15
            2310            2503     9.47339E-15     11.3945E-15
            2326            2503     9.47339E-15     11.3945E-15
            2327            2503     9.47339E-15     11.3945E-15
            2311            2503     9.47339E-15     11.3945E-15
            2327            2504     8.44794E-15     9.63717E-15
            2311            2504     8.44794E-15     9.63717E-15
            2312            2504     8.44794E-15     9.63717E-15
            2328            2504     8.44794E-15     9.63717E-15
            2329            2505     9.45013E-15     6.46907E-15
            2313            2505     9.45013E-15     6.46907E-15
            2312            2505     9.45013E-15     6.46907E-15
            2328            2505     9.45013E-15     6.46907E-15
            2313            2506     10.5768E-15     6.68887E-15
            2329            2506     10.5768E-15     6.68887E-15
            2314            2506     10.5768E-15     6.68887E-15
            2330            2506     10.5768E-15     6.68887E-15
            2315            2507     11.2169E-15     12.1388E-15
            2314            2507     11.2169E-15     12.1388E-15
            2331            2507     11.2169E-15     12.1388E-15
            2330            2507     11.2169E-15     12.1388E-15
            2316            2508     10.8436E-15     14.8199E-15
            2332            2508     10.8436E-15     14.8199E-15
            2315            2508     10.8436E-15     14.8199E-15
            2331            2508     10.8436E-15     14.8199E-15
            2332            2509     10.2962E-15     12.0151E-15
            2317            2509     10.2962E-15     12.0151E-15
            2333            2509     10.2962E-15     12.0151E-15
            2316            2509     10.2962E-15     12.0151E-15
            2318            2510     12.0580E-15     11.4295E-15
            2333            2510     12.0580E-15     11.4295E-15
            2317            2510     12.0580E-15     11.4295E-15
            2334            2510     12.0580E-15     11.4295E-15
            2335            2511     18.4104E-15     17.1083E-15
            2334            2511     18.4104E-15     17.1083E-15
            2319            2511     18.4104E-15     17.1083E-15
            2318            2511     18.4104E-15     17.1083E-15
            2319            2512     14.6259E-15     18.1075E-15
            2336            2512     14.6259E-15     18.1075E-15
            2335            2512     14.6259E-15     18.1075E-15
            2320            2512     14.6259E-15     18.1075E-15
            2338            2513     13.5217E-15     14.8136E-15
            2322            2513     13.5217E-15     14.8136E-15
            2321            2513     13.5217E-15     14.8136E-15
            2337            2513     13.5217E-15     14.8136E-15
            2322            2514     13.2228E-15     15.0861E-15
            2339            2514     13.2228E-15     15.0861E-15
            2338            2514     13.2228E-15     15.0861E-15
            2323            2514     13.2228E-15     15.0861E-15
            2324            2515     16.9535E-15     16.8841E-15
            2339            2515     16.9535E-15     16.8841E-15
            2340            2515     16.9535E-15     16.8841E-15
            2323            2515     16.9535E-15     16.8841E-15
            2341            2516     16.2966E-15     15.2000E-15
            2324            2516     16.2966E-15     15.2000E-15
            2340            2516     16.2966E-15     15.2000E-15
            2325            2516     16.2966E-15     15.2000E-15
            2341            2517     16.4880E-15     15.9674E-15
            2326            2517     16.4880E-15     15.9674E-15
            2342            2517     16.4880E-15     15.9674E-15
            2325            2517     16.4880E-15     15.9674E-15
            2343            2518     14.3786E-15     14.7393E-15
            2342            2518     14.3786E-15     14.7393E-15
            2327            2518     14.3786E-15     14.7393E-15
            2326            2518     14.3786E-15     14.7393E-15
            2327            2519     11.0829E-15     9.62297E-15
            2343            2519     11.0829E-15     9.62297E-15
            2328            2519     11.0829E-15     9.62297E-15
            2344            2519     11.0829E-15     9.62297E-15
            2328            2520     10.2986E-15     5.02586E-15
            2344            2520     10.2986E-15     5.02586E-15
            2345            2520     10.2986E-15     5.02586E-15
            2329            2520     10.2986E-15     5.02586E-15
            2345            2521     10.0894E-15     6.88532E-15
            2329            2521     10.0894E-15     6.88532E-15
            2330            2521     10.0894E-15     6.88532E-15
            2346            2521     10.0894E-15     6.88532E-15
            2347            2522     15.0640E-15     16.9307E-15
            2330            2522     15.0640E-15     16.9307E-15
            2346            2522     15.0640E-15     16.9307E-15
            2331            2522     15.0640E-15     16.9307E-15
            2347            2523     14.6067E-15     17.8388E-15
            2332            2523     14.6067E-15     17.8388E-15
            2348            2523     14.6067E-15     17.8388E-15
            2331            2523     14.6067E-15     17.8388E-15
            2348            2524     14.5066E-15     15.5006E-15
            2332            2524     14.5066E-15     15.5006E-15
            2333            2524     14.5066E-15     15.5006E-15
            2349            2524     14.5066E-15     15.5006E-15
            2333            2525     19.4772E-15     18.7313E-15
            2349            2525     19.4772E-15     18.7313E-15
            2334            2525     19.4772E-15     18.7313E-15
            2350            2525     19.4772E-15     18.7313E-15
            2334            2526     21.6888E-15     21.9166E-15
            2351            2526     21.6888E-15     21.9166E-15
            2350            2526     21.6888E-15     21.9166E-15
            2335            2526     21.6888E-15     21.9166E-15
            2336            2527     16.9830E-15     21.2706E-15
            2351            2527     16.9830E-15     21.2706E-15
            2352            2527     16.9830E-15     21.2706E-15
            2335            2527     16.9830E-15     21.2706E-15
            2353            2528     18.3488E-15     19.3184E-15
            2337            2528     18.3488E-15     19.3184E-15
            2338            2528     18.3488E-15     19.3184E-15
            2354            2528     18.3488E-15     19.3184E-15
            2339            2529     16.8421E-15     16.3578E-15
            2355            2529     16.8421E-15     16.3578E-15
            2338            2529     16.8421E-15     16.3578E-15
            2354            2529     16.8421E-15     16.3578E-15
            2340            2530     14.3110E-15     12.9667E-15
            2339            2530     14.3110E-15     12.9667E-15
            2356            2530     14.3110E-15     12.9667E-15
            2355            2530     14.3110E-15     12.9667E-15
            2340            2531     11.4833E-15     11.1764E-15
            2357            2531     11.4833E-15     11.1764E-15
            2341            2531     11.4833E-15     11.1764E-15
            2356            2531     11.4833E-15     11.1764E-15
            2358            2532     13.9121E-15     13.0912E-15
            2357            2532     13.9121E-15     13.0912E-15
            2342            2532     13.9121E-15     13.0912E-15
            2341            2532     13.9121E-15     13.0912E-15
            2342            2533     16.6520E-15     14.1306E-15
            2358            2533     16.6520E-15     14.1306E-15
            2343            2533     16.6520E-15     14.1306E-15
            2359            2533     16.6520E-15     14.1306E-15
            2343            2534     12.5199E-15     10.7487E-15
            2360            2534     12.5199E-15     10.7487E-15
            2344            2534     12.5199E-15     10.7487E-15
            2359            2534     12.5199E-15     10.7487E-15
            2360            2535     7.89286E-15     6.19854E-15
            2345            2535     7.89286E-15     6.19854E-15
            2361            2535     7.89286E-15     6.19854E-15
            2344            2535     7.89286E-15     6.19854E-15
            2346            2536     12.6108E-15     11.0010E-15
            2362            2536     12.6108E-15     11.0010E-15
            2345            2536     12.6108E-15     11.0010E-15
            2361            2536     12.6108E-15     11.0010E-15
            2346            2537     21.0206E-15     19.2523E-15
            2363            2537     21.0206E-15     19.2523E-15
            2362            2537     21.0206E-15     19.2523E-15
            2347            2537     21.0206E-15     19.2523E-15
            2363            2538     18.2365E-15     17.2385E-15
            2348            2538     18.2365E-15     17.2385E-15
            2347            2538     18.2365E-15     17.2385E-15
            2364            2538     18.2365E-15     17.2385E-15
            2364            2539     13.6304E-15     13.6956E-15
            2348            2539     13.6304E-15     13.6956E-15
            2365            2539     13.6304E-15     13.6956E-15
            2349            2539     13.6304E-15     13.6956E-15
            2366            2540     19.1240E-15     18.5535E-15
            2349            2540     19.1240E-15     18.5535E-15
            2365            2540     19.1240E-15     18.5535E-15
            2350            2540     19.1240E-15     18.5535E-15
            2367            2541     16.9559E-15     18.2785E-15
            2350            2541     16.9559E-15     18.2785E-15
            2366            2541     16.9559E-15     18.2785E-15
            2351            2541     16.9559E-15     18.2785E-15
            2367            2542     12.0818E-15     13.7114E-15
            2368            2542     12.0818E-15     13.7114E-15
            2352            2542     12.0818E-15     13.7114E-15
            2351            2542     12.0818E-15     13.7114E-15
            2545            2693     10.1552E-15     8.43708E-15
            2562            2693     10.1552E-15     8.43708E-15
            2546            2693     10.1552E-15     8.43708E-15
            2561            2693     10.1552E-15     8.43708E-15
            2546            2694     10.2697E-15     5.18602E-15
            2562            2694     10.2697E-15     5.18602E-15
            2547            2694     10.2697E-15     5.18602E-15
            2563            2694     10.2697E-15     5.18602E-15
            2548            2695     10.5052E-15     7.21456E-15
            2547            2695     10.5052E-15     7.21456E-15
            2564            2695     10.5052E-15     7.21456E-15
            2563            2695     10.5052E-15     7.21456E-15
            2565            2696     14.1711E-15     7.96060E-15
            2549            2696     14.1711E-15     7.96060E-15
            2564            2696     14.1711E-15     7.96060E-15
            2548            2696     14.1711E-15     7.96060E-15
            2566            2697     17.9642E-15     11.1847E-15
            2565            2697     17.9642E-15     11.1847E-15
            2550            2697     17.9642E-15     11.1847E-15
            2549            2697     17.9642E-15     11.1847E-15
            2566            2698     16.3873E-15     13.8074E-15
            2551            2698     16.3873E-15     13.8074E-15
            2550            2698     16.3873E-15     13.8074E-15
            2567            2698     16.3873E-15     13.8074E-15
            2567            2699     11.3048E-15     10.2564E-15
            2568            2699     11.3048E-15     10.2564E-15
            2551            2699     11.3048E-15     10.2564E-15
            2552            2699     11.3048E-15     10.2564E-15
            2568            2700     7.37152E-15     7.49081E-15
            2569            2700     7.37152E-15     7.49081E-15
            2552            2700     7.37152E-15     7.49081E-15
            2553            2700     7.37152E-15     7.49081E-15
            2569            2701     6.18167E-15     6.96521E-15
            2570            2701     6.18167E-15     6.96521E-15
            2553            2701     6.18167E-15     6.96521E-15
            2554            2701     6.18167E-15     6.96521E-15
            2571            2702     7.34123E-15     8.64143E-15
            2554            2702     7.34123E-15     8.64143E-15
            2555            2702     7.34123E-15     8.64143E-15
            2570            2702     7.34123E-15     8.64143E-15
            2571            2703     9.53505E-15     12.0783E-15
            2572            2703     9.53505E-15     12.0783E-15
            2556            2703     9.53505E-15     12.0783E-15
            2555            2703     9.53505E-15     12.0783E-15
            2557            2704     12.5450E-15     13.6795E-15
            2573            2704     12.5450E-15     13.6795E-15
            2572            2704     12.5450E-15     13.6795E-15
            2556            2704     12.5450E-15     13.6795E-15
            2573            2705     17.4775E-15     16.3718E-15
            2574            2705     17.4775E-15     16.3718E-15
            2558            2705     17.4775E-15     16.3718E-15
            2557            2705     17.4775E-15     16.3718E-15
            2575            2706     16.2630E-15     15.3788E-15
            2574            2706     16.2630E-15     15.3788E-15
            2558            2706     16.2630E-15     15.3788E-15
            2559            2706     16.2630E-15     15.3788E-15
            2559            2707     7.14671E-15     7.36075E-15
            2560            2707     7.14671E-15     7.36075E-15
            2575            2707     7.14671E-15     7.36075E-15
            2576            2707     7.14671E-15     7.36075E-15
            2577            2708     11.1169E-15     12.0726E-15
            2562            2708     11.1169E-15     12.0726E-15
            2578            2708     11.1169E-15     12.0726E-15
            2561            2708     11.1169E-15     12.0726E-15
            2563            2709     10.1861E-15     8.31204E-15
            2579            2709     10.1861E-15     8.31204E-15
            2562            2709     10.1861E-15     8.31204E-15
            2578            2709     10.1861E-15     8.31204E-15
            2563            2710     8.74937E-15     10.1507E-15
            2580            2710     8.74937E-15     10.1507E-15
            2579            2710     8.74937E-15     10.1507E-15
            2564            2710     8.74937E-15     10.1507E-15
            2581            2711     10.5108E-15     10.4297E-15
            2565            2711     10.5108E-15     10.4297E-15
            2564            2711     10.5108E-15     10.4297E-15
            2580            2711     10.5108E-15     10.4297E-15
            2581            2712     12.0371E-15     10.5930E-15
            2565            2712     12.0371E-15     10.5930E-15
            2582            2712     12.0371E-15     10.5930E-15
            2566            2712     12.0371E-15     10.5930E-15
            2566            2713     7.73720E-15     9.22394E-15
            2567            2713     7.73720E-15     9.22394E-15
            2583            2713     7.73720E-15     9.22394E-15
            2582            2713     7.73720E-15     9.22394E-15
            2583            2714     9.49704E-15     9.78730E-15
            2568            2714     9.49704E-15     9.78730E-15
            2567            2714     9.49704E-15     9.78730E-15
            2584            2714     9.49704E-15     9.78730E-15
            2569            2715     11.2446E-15     11.0064E-15
            2568            2715     11.2446E-15     11.0064E-15
            2585            2715     11.2446E-15     11.0064E-15
            2584            2715     11.2446E-15     11.0064E-15
            2569            2716     10.3979E-15     11.0624E-15
            2570            2716     10.3979E-15     11.0624E-15
            2586            2716     10.3979E-15     11.0624E-15
            2585            2716     10.3979E-15     11.0624E-15
            2587            2717     10.4529E-15     10.9956E-15
            2570            2717     10.4529E-15     10.9956E-15
            2571            2717     10.4529E-15     10.9956E-15
            2586            2717     10.4529E-15     10.9956E-15
            2571            2718     9.83376E-15     9.91963E-15
            2572            2718     9.83376E-15     9.91963E-15
            2587            2718     9.83376E-15     9.91963E-15
            2588            2718     9.83376E-15     9.91963E-15
            2573            2719     9.52411E-15     8.54623E-15
            2589            2719     9.52411E-15     8.54623E-15
            2588            2719     9.52411E-15     8.54623E-15
            2572            2719     9.52411E-15     8.54623E-15
            2589            2720     11.2288E-15     9.98007E-15
            2573            2720     11.2288E-15     9.98007E-15
            2574            2720     11.2288E-15     9.98007E-15
            2590            2720     11.2288E-15     9.98007E-15
            2575            2721     13.6039E-15     13.0870E-15
            2590            2721     13.6039E-15     13.0870E-15
            2574            2721     13.6039E-15     13.0870E-15
            2591            2721     13.6039E-15     13.0870E-15
            2575            2722     11.1007E-15     11.2669E-15
            2591            2722     11.1007E-15     11.2669E-15
            2592            2722     11.1007E-15     11.2669E-15
            2576            2722     11.1007E-15     11.2669E-15
            2577            2723     13.4984E-15     13.8948E-15
            2594            2723     13.4984E-15     13.8948E-15
            2593            2723     13.4984E-15     13.8948E-15
            2578            2723     13.4984E-15     13.8948E-15
            2579            2724     10.7188E-15     10.1667E-15
            2595            2724     10.7188E-15     10.1667E-15
            2594            2724     10.7188E-15     10.1667E-15
            2578            2724     10.7188E-15     10.1667E-15
            2595            2725     7.20900E-15     10.2472E-15
            2579            2725     7.20900E-15     10.2472E-15
            2580            2725     7.20900E-15     10.2472E-15
            2596            2725     7.20900E-15     10.2472E-15
            2597            2726     9.47901E-15     8.88378E-15
            2596            2726     9.47901E-15     8.88378E-15
            2581            2726     9.47901E-15     8.88378E-15
            2580            2726     9.47901E-15     8.88378E-15
            2582            2727     11.6265E-15     7.71618E-15
            2581            2727     11.6265E-15     7.71618E-15
            2597            2727     11.6265E-15     7.71618E-15
            2598            2727     11.6265E-15     7.71618E-15
            2583            2728     9.48081E-15     7.28097E-15
            2598            2728     9.48081E-15     7.28097E-15
            2582            2728     9.48081E-15     7.28097E-15
            2599            2728     9.48081E-15     7.28097E-15
            2600            2729     11.8093E-15     9.08297E-15
            2584            2729     11.8093E-15     9.08297E-15
            2599            2729     11.8093E-15     9.08297E-15
            2583            2729     11.8093E-15     9.08297E-15
            2585            2730     11.9599E-15     10.2050E-15
            2601            2730     11.9599E-15     10.2050E-15
            2600            2730     11.9599E-15     10.2050E-15
            2584            2730     11.9599E-15     10.2050E-15
            2585            2731     14.8035E-15     15.0857E-15
            2586            2731     14.8035E-15     15.0857E-15
            2601            2731     14.8035E-15     15.0857E-15
            2602            2731     14.8035E-15     15.0857E-15
            2587            2732     12.7849E-15     13.2271E-15
            2586            2732     12.7849E-15     13.2271E-15
            2602            2732     12.7849E-15     13.2271E-15
            2603            2732     12.7849E-15     13.2271E-15
            2603            2733     8.32426E-15     9.08265E-15
            2587            2733     8.32426E-15     9.08265E-15
            2604            2733     8.32426E-15     9.08265E-15
            2588            2733     8.32426E-15     9.08265E-15
            2605            2734     8.41322E-15     9.25116E-15
            2588            2734     8.41322E-15     9.25116E-15
            2604            2734     8.41322E-15     9.25116E-15
            2589            2734     8.41322E-15     9.25116E-15
            2590            2735     11.6055E-15     11.5877E-15
            2606            2735     11.6055E-15     11.5877E-15
            2589            2735     11.6055E-15     11.5877E-15
            2605            2735     11.6055E-15     11.5877E-15
            2607            2736     15.5117E-15     15.4672E-15
            2591            2736     15.5117E-15     15.4672E-15
            2590            2736     15.5117E-15     15.4672E-15
            2606            2736     15.5117E-15     15.4672E-15
            2591            2737     12.0786E-15     12.1388E-15
            2592            2737     12.0786E-15     12.1388E-15
            2607            2737     12.0786E-15     12.1388E-15
            2608            2737     12.0786E-15     12.1388E-15
            2594            2738     12.5217E-15     11.5371E-15
            2593            2738     12.5217E-15     11.5371E-15
            2609            2738     12.5217E-15     11.5371E-15
            2610            2738     12.5217E-15     11.5371E-15
            2611            2739     11.8696E-15     10.5788E-15
            2594            2739     11.8696E-15     10.5788E-15
            2610            2739     11.8696E-15     10.5788E-15
            2595            2739     11.8696E-15     10.5788E-15
            2611            2740     12.0314E-15     12.1401E-15
            2596            2740     12.0314E-15     12.1401E-15
            2595            2740     12.0314E-15     12.1401E-15
            2612            2740     12.0314E-15     12.1401E-15
            2613            2741     8.89737E-15     8.66709E-15
            2596            2741     8.89737E-15     8.66709E-15
            2612            2741     8.89737E-15     8.66709E-15
            2597            2741     8.89737E-15     8.66709E-15
            2598            2742     8.94670E-15     8.09927E-15
            2614            2742     8.94670E-15     8.09927E-15
            2613            2742     8.94670E-15     8.09927E-15
            2597            2742     8.94670E-15     8.09927E-15
            2599            2743     10.8718E-15     10.1235E-15
            2614            2743     10.8718E-15     10.1235E-15
            2598            2743     10.8718E-15     10.1235E-15
            2615            2743     10.8718E-15     10.1235E-15
            2615            2744     10.4931E-15     7.72515E-15
            2600            2744     10.4931E-15     7.72515E-15
            2616            2744     10.4931E-15     7.72515E-15
            2599            2744     10.4931E-15     7.72515E-15
            2617            2745     8.45056E-15     7.16971E-15
            2600            2745     8.45056E-15     7.16971E-15
            2616            2745     8.45056E-15     7.16971E-15
            2601            2745     8.45056E-15     7.16971E-15
            2602            2746     10.7576E-15     12.0873E-15
            2618            2746     10.7576E-15     12.0873E-15
            2601            2746     10.7576E-15     12.0873E-15
            2617            2746     10.7576E-15     12.0873E-15
            2602            2747     9.63752E-15     10.8529E-15
            2618            2747     9.63752E-15     10.8529E-15
            2603            2747     9.63752E-15     10.8529E-15
            2619            2747     9.63752E-15     10.8529E-15
            2620            2748     6.59698E-15     8.01955E-15
            2603            2748     6.59698E-15     8.01955E-15
            2619            2748     6.59698E-15     8.01955E-15
            2604            2748     6.59698E-15     8.01955E-15
            2621            2749     7.53178E-15     8.29606E-15
            2605            2749     7.53178E-15     8.29606E-15
            2620            2749     7.53178E-15     8.29606E-15
            2604            2749     7.53178E-15     8.29606E-15
            2622            2750     10.8794E-15     9.89287E-15
            2621            2750     10.8794E-15     9.89287E-15
            2606            2750     10.8794E-15     9.89287E-15
            2605            2750     10.8794E-15     9.89287E-15
            2623            2751     12.5974E-15     12.6111E-15
            2607            2751     12.5974E-15     12.6111E-15
            2622            2751     12.5974E-15     12.6111E-15
            2606            2751     12.5974E-15     12.6111E-15
            2607            2752     7.82984E-15     8.69550E-15
            2608            2752     7.82984E-15     8.69550E-15
            2624            2752     7.82984E-15     8.69550E-15
            2623            2752     7.82984E-15     8.69550E-15
            2625            2753     12.6909E-15     13.1771E-15
            2626            2753     12.6909E-15     13.1771E-15
            2610            2753     12.6909E-15     13.1771E-15
            2609            2753     12.6909E-15     13.1771E-15
            2610            2754     15.5782E-15     13.8743E-15
            2626            2754     15.5782E-15     13.8743E-15
            2627            2754     15.5782E-15     13.8743E-15
            2611            2754     15.5782E-15     13.8743E-15
            2628            2755     14.9140E-15     14.6685E-15
            2611            2755     14.9140E-15     14.6685E-15
            2612            2755     14.9140E-15     14.6685E-15
            2627            2755     14.9140E-15     14.6685E-15
            2613            2756     9.21955E-15     9.08994E-15
            2628            2756     9.21955E-15     9.08994E-15
            2629            2756     9.21955E-15     9.08994E-15
            2612            2756     9.21955E-15     9.08994E-15
            2613            2757     11.8805E-15     7.99270E-15
            2614            2757     11.8805E-15     7.99270E-15
            2629            2757     11.8805E-15     7.99270E-15
            2630            2757     11.8805E-15     7.99270E-15
            2615            2758     13.9823E-15     9.73812E-15
            2630            2758     13.9823E-15     9.73812E-15
            2614            2758     13.9823E-15     9.73812E-15
            2631            2758     13.9823E-15     9.73812E-15
            2616            2759     13.6647E-15     9.59746E-15
            2615            2759     13.6647E-15     9.59746E-15
            2631            2759     13.6647E-15     9.59746E-15
            2632            2759     13.6647E-15     9.59746E-15
            2633            2760     10.7323E-15     8.25488E-15
            2632            2760     10.7323E-15     8.25488E-15
            2616            2760     10.7323E-15     8.25488E-15
            2617            2760     10.7323E-15     8.25488E-15
            2618            2761     7.15063E-15     6.74276E-15
            2634            2761     7.15063E-15     6.74276E-15
            2617            2761     7.15063E-15     6.74276E-15
            2633            2761     7.15063E-15     6.74276E-15
            2619            2762     5.16856E-15     5.01755E-15
            2634            2762     5.16856E-15     5.01755E-15
            2618            2762     5.16856E-15     5.01755E-15
            2635            2762     5.16856E-15     5.01755E-15
            2635            2763     6.67379E-15     6.79927E-15
            2619            2763     6.67379E-15     6.79927E-15
            2620            2763     6.67379E-15     6.79927E-15
            2636            2763     6.67379E-15     6.79927E-15
            2637            2764     7.61654E-15     8.09855E-15
            2620            2764     7.61654E-15     8.09855E-15
            2636            2764     7.61654E-15     8.09855E-15
            2621            2764     7.61654E-15     8.09855E-15
            2638            2765     7.92373E-15     8.24795E-15
            2621            2765     7.92373E-15     8.24795E-15
            2637            2765     7.92373E-15     8.24795E-15
            2622            2765     7.92373E-15     8.24795E-15
            2623            2766     10.5559E-15     10.8451E-15
            2639            2766     10.5559E-15     10.8451E-15
            2638            2766     10.5559E-15     10.8451E-15
            2622            2766     10.5559E-15     10.8451E-15
            2640            2767     10.2076E-15     11.1289E-15
            2639            2767     10.2076E-15     11.1289E-15
            2623            2767     10.2076E-15     11.1289E-15
            2624            2767     10.2076E-15     11.1289E-15
            3028            3027     158.608E-03     180.709E-03
            3027            3027     158.608E-03     180.709E-03
            3012            3027     158.608E-03     180.709E-03
            3011            3027     158.608E-03     180.709E-03
            3029            3028     172.020E-03     216.988E-03
            3028            3028     172.020E-03     216.988E-03
            3012            3028     172.020E-03     216.988E-03
            3013            3028     172.020E-03     216.988E-03
            3014            3029     204.969E-03     260.647E-03
            3029            3029     204.969E-03     260.647E-03
            3013            3029     204.969E-03     260.647E-03
            3030            3029     204.969E-03     260.647E-03
            3031            3030     250.446E-03     311.774E-03
            3014            3030     250.446E-03     311.774E-03
            3030            3030     250.446E-03     311.774E-03
            3015            3030     250.446E-03     311.774E-03
            3016            3031     301.343E-03     365.383E-03
            3031            3031     301.343E-03     365.383E-03
            3032            3031     301.343E-03     365.383E-03
            3015            3031     301.343E-03     365.383E-03
            3032            3032     354.912E-03     420.920E-03
            3033            3032     354.912E-03     420.920E-03
            3017            3032     354.912E-03     420.920E-03
            3016            3032     354.912E-03     420.920E-03
            3034            3033     410.445E-03     477.341E-03
            3018            3033     410.445E-03     477.341E-03
            3017            3033     410.445E-03     477.341E-03
            3033            3033     410.445E-03     477.341E-03
            3018            3034     466.898E-03     534.833E-03
            3035            3034     466.898E-03     534.833E-03
            3019            3034     466.898E-03     534.833E-03
            3034            3034     466.898E-03     534.833E-03
            3036            3035     524.365E-03     592.462E-03
            3019            3035     524.365E-03     592.462E-03
            3020            3035     524.365E-03     592.462E-03
            3035            3035     524.365E-03     592.462E-03
            3020            3036     582.192E-03     651.067E-03
            3036            3036     582.192E-03     651.067E-03
            3021            3036     582.192E-03     651.067E-03
            3037            3036     582.192E-03     651.067E-03
            3038            3037     640.634E-03     709.279E-03
            3037            3037     640.634E-03     709.279E-03
            3022            3037     640.634E-03     709.279E-03
            3021            3037     640.634E-03     709.279E-03
            3039            3038     699.971E-03     768.892E-03
            3023            3038     699.971E-03     768.892E-03
            3022            3038     699.971E-03     768.892E-03
            3038            3038     699.971E-03     768.892E-03
            3023            3039     757.288E-03     827.142E-03
            3040            3039     757.288E-03     827.142E-03
            3039            3039     757.288E-03     827.142E-03
            3024            3039     757.288E-03     827.142E-03
            3025            3040     820.201E-03     889.301E-03
            3040            3040     820.201E-03     889.301E-03
            3024            3040     820.201E-03     889.301E-03
            3041            3040     820.201E-03     889.301E-03
            3041            3041     930.852E-03     992.041E-03
            3026            3041     930.852E-03     992.041E-03
            3025            3041     930.852E-03     992.041E-03
            3042            3041     930.852E-03     992.041E-03
            3027            3042     202.350E-03     196.417E-03
            3043            3042     202.350E-03     196.417E-03
            3044            3042     202.350E-03     196.417E-03
            3028            3042     202.350E-03     196.417E-03
            3045            3043     229.979E-03     212.657E-03
            3044            3043     229.979E-03     212.657E-03
            3029            3043     229.979E-03     212.657E-03
            3028            3043     229.979E-03     212.657E-03
            3029            3044     269.289E-03     244.907E-03
            3030            3044     269.289E-03     244.907E-03
            3045            3044     269.289E-03     244.907E-03
            3046            3044     269.289E-03     244.907E-03
            3030            3045     315.518E-03     288.061E-03
            3031            3045     315.518E-03     288.061E-03
            3046            3045     315.518E-03     288.061E-03
            3047            3045     315.518E-03     288.061E-03
            3048            3046     366.075E-03     335.991E-03
            3047            3046     366.075E-03     335.991E-03
            3031            3046     366.075E-03     335.991E-03
            3032            3046     366.075E-03     335.991E-03
            3049            3047     419.170E-03     387.215E-03
            3048            3047     419.170E-03     387.215E-03
            3032            3047     419.170E-03     387.215E-03
            3033            3047     419.170E-03     387.215E-03
            3033            3048     473.752E-03     440.774E-03
            3034            3048     473.752E-03     440.774E-03
            3049            3048     473.752E-03     440.774E-03
            3050            3048     473.752E-03     440.774E-03
            3034            3049     529.634E-03     495.601E-03
            3051            3049     529.634E-03     495.601E-03
            3050            3049     529.634E-03     495.601E-03
            3035            3049     529.634E-03     495.601E-03
            3035            3050     585.991E-03     551.627E-03
            3036            3050     585.991E-03     551.627E-03
            3052            3050     585.991E-03     551.627E-03
            3051            3050     585.991E-03     551.627E-03
            3037            3051     643.201E-03     607.983E-03
            3036            3051     643.201E-03     607.983E-03
            3052            3051     643.201E-03     607.983E-03
            3053            3051     643.201E-03     607.983E-03
            3054            3052     700.014E-03     664.863E-03
            3053            3052     700.014E-03     664.863E-03
            3037            3052     700.014E-03     664.863E-03
            3038            3052     700.014E-03     664.863E-03
            3038            3053     757.438E-03     721.180E-03
            3054            3053     757.438E-03     721.180E-03
            3039            3053     757.438E-03     721.180E-03
            3055            3053     757.438E-03     721.180E-03
            3040            3054     815.009E-03     779.564E-03
            3056            3054     815.009E-03     779.564E-03
            3039            3054     815.009E-03     779.564E-03
            3055            3054     815.009E-03     779.564E-03
            3040            3055     876.349E-03     840.492E-03
            3056            3055     876.349E-03     840.492E-03
            3041            3055     876.349E-03     840.492E-03
            3057            3055     876.349E-03     840.492E-03
            3058            3056     878.240E-03     833.338E-03
            3042            3056     878.240E-03     833.338E-03
            3041            3056     878.240E-03     833.338E-03
            3057            3056     878.240E-03     833.338E-03
            3044            3057     172.652E-03     179.512E-03
            3060            3057     172.652E-03     179.512E-03
            3059            3057     172.652E-03     179.512E-03
            3043            3057     172.652E-03     179.512E-03
            3045            3058     199.875E-03     192.425E-03
            3061            3058     199.875E-03     192.425E-03
            3044            3058     199.875E-03     192.425E-03
            3060            3058     199.875E-03     192.425E-03
            3045            3059     225.664E-03     213.253E-03
            3061            3059     225.664E-03     213.253E-03
            3046            3059     225.664E-03     213.253E-03
            3062            3059     225.664E-03     213.253E-03
            3046            3060     255.653E-03     242.779E-03
            3063            3060     255.653E-03     242.779E-03
            3047            3060     255.653E-03     242.779E-03
            3062            3060     255.653E-03     242.779E-03
            3063            3061     289.046E-03     276.149E-03
            3047            3061     289.046E-03     276.149E-03
            3064            3061     289.046E-03     276.149E-03
            3048            3061     289.046E-03     276.149E-03
            3049            3062     325.286E-03     312.454E-03
            3064            3062     325.286E-03     312.454E-03
            3065            3062     325.286E-03     312.454E-03
            3048            3062     325.286E-03     312.454E-03
            3049            3063     363.059E-03     350.482E-03
            3065            3063     363.059E-03     350.482E-03
            3066            3063     363.059E-03     350.482E-03
            3050            3063     363.059E-03     350.482E-03
            3050            3064     402.245E-03     389.522E-03
            3066            3064     402.245E-03     389.522E-03
            3051            3064     402.245E-03     389.522E-03
            3067            3064     402.245E-03     389.522E-03
            3068            3065     441.993E-03     429.521E-03
            3052            3065     441.993E-03     429.521E-03
            3051            3065     441.993E-03     429.521E-03
            3067            3065     441.993E-03     429.521E-03
            3069            3066     482.351E-03     469.616E-03
            3068            3066     482.351E-03     469.616E-03
            3053            3066     482.351E-03     469.616E-03
            3052            3066     482.351E-03     469.616E-03
            3070            3067     523.738E-03     511.182E-03
            3053            3067     523.738E-03     511.182E-03
            3054            3067     523.738E-03     511.182E-03
            3069            3067     523.738E-03     511.182E-03
            3054            3068     566.927E-03     554.265E-03
            3055            3068     566.927E-03     554.265E-03
            3071            3068     566.927E-03     554.265E-03
            3070            3068     566.927E-03     554.265E-03
            3072            3069     621.853E-03     608.100E-03
            3071            3069     621.853E-03     608.100E-03
            3055            3069     621.853E-03     608.100E-03
            3056            3069     621.853E-03     608.100E-03
            3057            3070     685.774E-03     677.343E-03
            3072            3070     685.774E-03     677.343E-03
            3056            3070     685.774E-03     677.343E-03
            3073            3070     685.774E-03     677.343E-03
            3058            3071     759.618E-03     775.720E-03
            3074            3071     759.618E-03     775.720E-03
            3073            3071     759.618E-03     775.720E-03
            3057            3071     759.618E-03     775.720E-03
            3075            3072     145.889E-03     162.762E-03
            3076            3072     145.889E-03     162.762E-03
            3060            3072     145.889E-03     162.762E-03
            3059            3072     145.889E-03     162.762E-03
            3077            3073     150.478E-03     173.494E-03
            3061            3073     150.478E-03     173.494E-03
            3076            3073     150.478E-03     173.494E-03
            3060            3073     150.478E-03     173.494E-03
            3061            3074     160.295E-03     189.122E-03
            3077            3074     160.295E-03     189.122E-03
            3078            3074     160.295E-03     189.122E-03
            3062            3074     160.295E-03     189.122E-03
            3062            3075     173.473E-03     208.947E-03
            3079            3075     173.473E-03     208.947E-03
            3078            3075     173.473E-03     208.947E-03
            3063            3075     173.473E-03     208.947E-03
            3064            3076     189.942E-03     230.841E-03
            3079            3076     189.942E-03     230.841E-03
            3080            3076     189.942E-03     230.841E-03
            3063            3076     189.942E-03     230.841E-03
            3080            3077     209.348E-03     254.069E-03
            3081            3077     209.348E-03     254.069E-03
            3065            3077     209.348E-03     254.069E-03
            3064            3077     209.348E-03     254.069E-03
            3065            3078     230.851E-03     278.122E-03
            3081            3078     230.851E-03     278.122E-03
            3082            3078     230.851E-03     278.122E-03
            3066            3078     230.851E-03     278.122E-03
            3082            3079     253.769E-03     302.987E-03
            3067            3079     253.769E-03     302.987E-03
            3066            3079     253.769E-03     302.987E-03
            3083            3079     253.769E-03     302.987E-03
            3067            3080     277.480E-03     328.019E-03
            3068            3080     277.480E-03     328.019E-03
            3083            3080     277.480E-03     328.019E-03
            3084            3080     277.480E-03     328.019E-03
            3068            3081     302.338E-03     353.998E-03
            3084            3081     302.338E-03     353.998E-03
            3085            3081     302.338E-03     353.998E-03
            3069            3081     302.338E-03     353.998E-03
            3085            3082     328.206E-03     380.926E-03
            3086            3082     328.206E-03     380.926E-03
            3069            3082     328.206E-03     380.926E-03
            3070            3082     328.206E-03     380.926E-03
            3071            3083     361.032E-03     414.268E-03
            3086            3083     361.032E-03     414.268E-03
            3070            3083     361.032E-03     414.268E-03
            3087            3083     361.032E-03     414.268E-03
            3088            3084     406.327E-03     460.725E-03
            3071            3084     406.327E-03     460.725E-03
            3072            3084     406.327E-03     460.725E-03
            3087            3084     406.327E-03     460.725E-03
            3073            3085     496.025E-03     551.313E-03
            3072            3085     496.025E-03     551.313E-03
            3088            3085     496.025E-03     551.313E-03
            3089            3085     496.025E-03     551.313E-03
            3073            3086     696.465E-03     743.258E-03
            3090            3086     696.465E-03     743.258E-03
            3089            3086     696.465E-03     743.258E-03
            3074            3086     696.465E-03     743.258E-03
            3075            3087     174.928E-03     165.429E-03
            3076            3087     174.928E-03     165.429E-03
            3092            3087     174.928E-03     165.429E-03
            3091            3087     174.928E-03     165.429E-03
            3077            3088     173.661E-03     181.650E-03
            3093            3088     173.661E-03     181.650E-03
            3092            3088     173.661E-03     181.650E-03
            3076            3088     173.661E-03     181.650E-03
            3077            3089     180.846E-03     197.081E-03
            3094            3089     180.846E-03     197.081E-03
            3078            3089     180.846E-03     197.081E-03
            3093            3089     180.846E-03     197.081E-03
            3094            3090     193.652E-03     215.023E-03
            3095            3090     193.652E-03     215.023E-03
            3078            3090     193.652E-03     215.023E-03
            3079            3090     193.652E-03     215.023E-03
            3095            3091     209.757E-03     235.309E-03
            3079            3091     209.757E-03     235.309E-03
            3096            3091     209.757E-03     235.309E-03
            3080            3091     209.757E-03     235.309E-03
            3081            3092     229.066E-03     257.089E-03
            3096            3092     229.066E-03     257.089E-03
            3080            3092     229.066E-03     257.089E-03
            3097            3092     229.066E-03     257.089E-03
            3097            3093     250.640E-03     280.586E-03
            3098            3093     250.640E-03     280.586E-03
            3082            3093     250.640E-03     280.586E-03
            3081            3093     250.640E-03     280.586E-03
            3099            3094     273.792E-03     305.139E-03
            3098            3094     273.792E-03     305.139E-03
            3083            3094     273.792E-03     305.139E-03
            3082            3094     273.792E-03     305.139E-03
            3099            3095     298.370E-03     330.852E-03
            3100            3095     298.370E-03     330.852E-03
            3083            3095     298.370E-03     330.852E-03
            3084            3095     298.370E-03     330.852E-03
            3100            3096     323.732E-03     357.389E-03
            3084            3096     323.732E-03     357.389E-03
            3101            3096     323.732E-03     357.389E-03
            3085            3096     323.732E-03     357.389E-03
            3085            3097     350.950E-03     385.655E-03
            3086            3097     350.950E-03     385.655E-03
            3102            3097     350.950E-03     385.655E-03
            3101            3097     350.950E-03     385.655E-03
            3103            3098     380.192E-03     416.709E-03
            3086            3098     380.192E-03     416.709E-03
            3102            3098     380.192E-03     416.709E-03
            3087            3098     380.192E-03     416.709E-03
            3087            3099     420.886E-03     456.134E-03
            3103            3099     420.886E-03     456.134E-03
            3104            3099     420.886E-03     456.134E-03
            3088            3099     420.886E-03     456.134E-03
            3105            3100     503.677E-03     528.022E-03
            3088            3100     503.677E-03     528.022E-03
            3089            3100     503.677E-03     528.022E-03
            3104            3100     503.677E-03     528.022E-03
            3106            3101     636.643E-03     640.412E-03
            3105            3101     636.643E-03     640.412E-03
            3090            3101     636.643E-03     640.412E-03
            3089            3101     636.643E-03     640.412E-03
            3107            3102     194.172E-03     175.906E-03
            3091            3102     194.172E-03     175.906E-03
            3092            3102     194.172E-03     175.906E-03
            3108            3102     194.172E-03     175.906E-03
            3108            3103     195.847E-03     189.044E-03
            3109            3103     195.847E-03     189.044E-03
            3092            3103     195.847E-03     189.044E-03
            3093            3103     195.847E-03     189.044E-03
            3110            3104     200.988E-03     206.039E-03
            3109            3104     200.988E-03     206.039E-03
            3093            3104     200.988E-03     206.039E-03
            3094            3104     200.988E-03     206.039E-03
            3111            3105     212.217E-03     222.274E-03
            3110            3105     212.217E-03     222.274E-03
            3094            3105     212.217E-03     222.274E-03
            3095            3105     212.217E-03     222.274E-03
            3112            3106     228.472E-03     239.949E-03
            3111            3106     228.472E-03     239.949E-03
            3095            3106     228.472E-03     239.949E-03
            3096            3106     228.472E-03     239.949E-03
            3112            3107     247.556E-03     260.296E-03
            3096            3107     247.556E-03     260.296E-03
            3113            3107     247.556E-03     260.296E-03
            3097            3107     247.556E-03     260.296E-03
            3097            3108     268.919E-03     282.580E-03
            3113            3108     268.919E-03     282.580E-03
            3098            3108     268.919E-03     282.580E-03
            3114            3108     268.919E-03     282.580E-03
            3114            3109     292.335E-03     306.747E-03
            3099            3109     292.335E-03     306.747E-03
            3115            3109     292.335E-03     306.747E-03
            3098            3109     292.335E-03     306.747E-03
            3099            3110     317.406E-03     332.605E-03
            3115            3110     317.406E-03     332.605E-03
            3116            3110     317.406E-03     332.605E-03
            3100            3110     317.406E-03     332.605E-03
            3101            3111     343.898E-03     359.821E-03
            3116            3111     343.898E-03     359.821E-03
            3100            3111     343.898E-03     359.821E-03
            3117            3111     343.898E-03     359.821E-03
            3117            3112     371.438E-03     388.537E-03
            3102            3112     371.438E-03     388.537E-03
            3118            3112     371.438E-03     388.537E-03
            3101            3112     371.438E-03     388.537E-03
            3102            3113     397.593E-03     416.443E-03
            3118            3113     397.593E-03     416.443E-03
            3119            3113     397.593E-03     416.443E-03
            3103            3113     397.593E-03     416.443E-03
            3103            3114     425.449E-03     444.479E-03
            3104            3114     425.449E-03     444.479E-03
            3120            3114     425.449E-03     444.479E-03
            3119            3114     425.449E-03     444.479E-03
            3121            3115     459.671E-03     474.140E-03
            3104            3115     459.671E-03     474.140E-03
            3105            3115     459.671E-03     474.140E-03
            3120            3115     459.671E-03     474.140E-03
            3106            3116     524.031E-03     537.346E-03
            3122            3116     524.031E-03     537.346E-03
            3121            3116     524.031E-03     537.346E-03
            3105            3116     524.031E-03     537.346E-03
            3124            3117     210.178E-03     191.790E-03
            3107            3117     210.178E-03     191.790E-03
            3123            3117     210.178E-03     191.790E-03
            3108            3117     210.178E-03     191.790E-03
            3124            3118     211.995E-03     204.507E-03
            3108            3118     211.995E-03     204.507E-03
            3109            3118     211.995E-03     204.507E-03
            3125            3118     211.995E-03     204.507E-03
            3110            3119     217.940E-03     217.092E-03
            3125            3119     217.940E-03     217.092E-03
            3109            3119     217.940E-03     217.092E-03
            3126            3119     217.940E-03     217.092E-03
            3110            3120     230.178E-03     229.680E-03
            3127            3120     230.178E-03     229.680E-03
            3111            3120     230.178E-03     229.680E-03
            3126            3120     230.178E-03     229.680E-03
            3128            3121     246.279E-03     245.092E-03
            3127            3121     246.279E-03     245.092E-03
            3111            3121     246.279E-03     245.092E-03
            3112            3121     246.279E-03     245.092E-03
            3112            3122     264.755E-03     263.245E-03
            3128            3122     264.755E-03     263.245E-03
            3113            3122     264.755E-03     263.245E-03
            3129            3122     264.755E-03     263.245E-03
            3114            3123     285.459E-03     283.738E-03
            3129            3123     285.459E-03     283.738E-03
            3130            3123     285.459E-03     283.738E-03
            3113            3123     285.459E-03     283.738E-03
            3114            3124     308.148E-03     306.371E-03
            3130            3124     308.148E-03     306.371E-03
            3115            3124     308.148E-03     306.371E-03
            3131            3124     308.148E-03     306.371E-03
            3115            3125     332.557E-03     330.762E-03
            3132            3125     332.557E-03     330.762E-03
            3116            3125     332.557E-03     330.762E-03
            3131            3125     332.557E-03     330.762E-03
            3133            3126     358.663E-03     356.961E-03
            3116            3126     358.663E-03     356.961E-03
            3117            3126     358.663E-03     356.961E-03
            3132            3126     358.663E-03     356.961E-03
            3117            3127     383.746E-03     382.758E-03
            3133            3127     383.746E-03     382.758E-03
            3118            3127     383.746E-03     382.758E-03
            3134            3127     383.746E-03     382.758E-03
            3118            3128     407.078E-03     406.575E-03
            3134            3128     407.078E-03     406.575E-03
            3119            3128     407.078E-03     406.575E-03
            3135            3128     407.078E-03     406.575E-03
            3119            3129     411.950E-03     417.235E-03
            3120            3129     411.950E-03     417.235E-03
            3135            3129     411.950E-03     417.235E-03
            3136            3129     411.950E-03     417.235E-03
            3120            3130     393.136E-03     405.381E-03
            3137            3130     393.136E-03     405.381E-03
            3121            3130     393.136E-03     405.381E-03
            3136            3130     393.136E-03     405.381E-03
            3137            3131     418.801E-03     419.618E-03
            3138            3131     418.801E-03     419.618E-03
            3122            3131     418.801E-03     419.618E-03
            3121            3131     418.801E-03     419.618E-03
            3124            3132     222.829E-03     217.651E-03
            3140            3132     222.829E-03     217.651E-03
            3123            3132     222.829E-03     217.651E-03
            3139            3132     222.829E-03     217.651E-03
            3140            3133     222.998E-03     224.854E-03
            3124            3133     222.998E-03     224.854E-03
            3125            3133     222.998E-03     224.854E-03
            3141            3133     222.998E-03     224.854E-03
            3126            3134     233.806E-03     228.710E-03
            3141            3134     233.806E-03     228.710E-03
            3125            3134     233.806E-03     228.710E-03
            3142            3134     233.806E-03     228.710E-03
            3127            3135     248.151E-03     237.706E-03
            3126            3135     248.151E-03     237.706E-03
            3143            3135     248.151E-03     237.706E-03
            3142            3135     248.151E-03     237.706E-03
            3143            3136     263.578E-03     250.884E-03
            3127            3136     263.578E-03     250.884E-03
            3128            3136     263.578E-03     250.884E-03
            3144            3136     263.578E-03     250.884E-03
            3128            3137     281.123E-03     266.415E-03
            3144            3137     281.123E-03     266.415E-03
            3129            3137     281.123E-03     266.415E-03
            3145            3137     281.123E-03     266.415E-03
            3145            3138     300.363E-03     284.236E-03
            3129            3138     300.363E-03     284.236E-03
            3130            3138     300.363E-03     284.236E-03
            3146            3138     300.363E-03     284.236E-03
            3131            3139     321.057E-03     303.730E-03
            3146            3139     321.057E-03     303.730E-03
            3147            3139     321.057E-03     303.730E-03
            3130            3139     321.057E-03     303.730E-03
            3132            3140     343.136E-03     324.701E-03
            3147            3140     343.136E-03     324.701E-03
            3131            3140     343.136E-03     324.701E-03
            3148            3140     343.136E-03     324.701E-03
            3149            3141     365.307E-03     345.995E-03
            3133            3141     365.307E-03     345.995E-03
            3148            3141     365.307E-03     345.995E-03
            3132            3141     365.307E-03     345.995E-03
            3134            3142     386.658E-03     366.315E-03
            3149            3142     386.658E-03     366.315E-03
            3133            3142     386.658E-03     366.315E-03
            3150            3142     386.658E-03     366.315E-03
            3135            3143     399.756E-03     379.782E-03
            3150            3143     399.756E-03     379.782E-03
            3151            3143     399.756E-03     379.782E-03
            3134            3143     399.756E-03     379.782E-03
            3135            3144     394.547E-03     377.048E-03
            3151            3144     394.547E-03     377.048E-03
            3152            3144     394.547E-03     377.048E-03
            3136            3144     394.547E-03     377.048E-03
            3136            3145     341.955E-03     333.874E-03
            3153            3145     341.955E-03     333.874E-03
            3137            3145     341.955E-03     333.874E-03
            3152            3145     341.955E-03     333.874E-03
            3138            3146     313.219E-03     309.118E-03
            3153            3146     313.219E-03     309.118E-03
            3137            3146     313.219E-03     309.118E-03
            3154            3146     313.219E-03     309.118E-03
            3139            3147     226.618E-03     245.580E-03
            3140            3147     226.618E-03     245.580E-03
            3155            3147     226.618E-03     245.580E-03
            3156            3147     226.618E-03     245.580E-03
            3157            3148     238.412E-03     238.508E-03
            3140            3148     238.412E-03     238.508E-03
            3156            3148     238.412E-03     238.508E-03
            3141            3148     238.412E-03     238.508E-03
            3157            3149     252.399E-03     239.684E-03
            3141            3149     252.399E-03     239.684E-03
            3158            3149     252.399E-03     239.684E-03
            3142            3149     252.399E-03     239.684E-03
            3158            3150     266.191E-03     247.339E-03
            3142            3150     266.191E-03     247.339E-03
            3143            3150     266.191E-03     247.339E-03
            3159            3150     266.191E-03     247.339E-03
            3144            3151     281.061E-03     257.940E-03
            3159            3151     281.061E-03     257.940E-03
            3143            3151     281.061E-03     257.940E-03
            3160            3151     281.061E-03     257.940E-03
            3145            3152     297.349E-03     270.883E-03
            3160            3152     297.349E-03     270.883E-03
            3161            3152     297.349E-03     270.883E-03
            3144            3152     297.349E-03     270.883E-03
            3145            3153     314.579E-03     285.293E-03
            3161            3153     314.579E-03     285.293E-03
            3162            3153     314.579E-03     285.293E-03
            3146            3153     314.579E-03     285.293E-03
            3146            3154     332.557E-03     300.637E-03
            3162            3154     332.557E-03     300.637E-03
            3163            3154     332.557E-03     300.637E-03
            3147            3154     332.557E-03     300.637E-03
            3163            3155     350.217E-03     316.072E-03
            3147            3155     350.217E-03     316.072E-03
            3148            3155     350.217E-03     316.072E-03
            3164            3155     350.217E-03     316.072E-03
            3164            3156     366.594E-03     329.875E-03
            3148            3156     366.594E-03     329.875E-03
            3149            3156     366.594E-03     329.875E-03
            3165            3156     366.594E-03     329.875E-03
            3149            3157     378.721E-03     339.692E-03
            3165            3157     378.721E-03     339.692E-03
            3166            3157     378.721E-03     339.692E-03
            3150            3157     378.721E-03     339.692E-03
            3167            3158     380.971E-03     339.188E-03
            3166            3158     380.971E-03     339.188E-03
            3150            3158     380.971E-03     339.188E-03
            3151            3158     380.971E-03     339.188E-03
            3152            3159     365.403E-03     319.756E-03
            3167            3159     365.403E-03     319.756E-03
            3168            3159     365.403E-03     319.756E-03
            3151            3159     365.403E-03     319.756E-03
            3153            3160     307.691E-03     262.105E-03
            3168            3160     307.691E-03     262.105E-03
            3152            3160     307.691E-03     262.105E-03
            3169            3160     307.691E-03     262.105E-03
            3169            3161     240.016E-03     230.203E-03
            3170            3161     240.016E-03     230.203E-03
            3153            3161     240.016E-03     230.203E-03
            3154            3161     240.016E-03     230.203E-03
            3172            3162     121.601E-03     135.114E-03
            3171            3162     121.601E-03     135.114E-03
            3155            3162     121.601E-03     135.114E-03
            3156            3162     121.601E-03     135.114E-03
            3157            3163     132.848E-03     130.714E-03
            3173            3163     132.848E-03     130.714E-03
            3156            3163     132.848E-03     130.714E-03
            3172            3163     132.848E-03     130.714E-03
            3174            3164     139.753E-03     132.115E-03
            3158            3164     139.753E-03     132.115E-03
            3173            3164     139.753E-03     132.115E-03
            3157            3164     139.753E-03     132.115E-03
            3158            3165     147.269E-03     136.846E-03
            3174            3165     147.269E-03     136.846E-03
            3159            3165     147.269E-03     136.846E-03
            3175            3165     147.269E-03     136.846E-03
            3176            3166     155.441E-03     142.434E-03
            3175            3166     155.441E-03     142.434E-03
            3159            3166     155.441E-03     142.434E-03
            3160            3166     155.441E-03     142.434E-03
            3161            3167     164.374E-03     149.291E-03
            3160            3167     164.374E-03     149.291E-03
            3177            3167     164.374E-03     149.291E-03
            3176            3167     164.374E-03     149.291E-03
            3162            3168     173.664E-03     156.804E-03
            3161            3168     173.664E-03     156.804E-03
            3177            3168     173.664E-03     156.804E-03
            3178            3168     173.664E-03     156.804E-03
            3179            3169     183.103E-03     164.522E-03
            3178            3169     183.103E-03     164.522E-03
            3162            3169     183.103E-03     164.522E-03
            3163            3169     183.103E-03     164.522E-03
            3163            3170     192.013E-03     171.926E-03
            3164            3170     192.013E-03     171.926E-03
            3180            3170     192.013E-03     171.926E-03
            3179            3170     192.013E-03     171.926E-03
            3165            3171     199.794E-03     178.098E-03
            3164            3171     199.794E-03     178.098E-03
            3180            3171     199.794E-03     178.098E-03
            3181            3171     199.794E-03     178.098E-03
            3166            3172     204.208E-03     180.821E-03
            3165            3172     204.208E-03     180.821E-03
            3182            3172     204.208E-03     180.821E-03
            3181            3172     204.208E-03     180.821E-03
            3167            3173     204.344E-03     178.537E-03
            3182            3173     204.344E-03     178.537E-03
            3166            3173     204.344E-03     178.537E-03
            3183            3173     204.344E-03     178.537E-03
            3167            3174     193.130E-03     164.261E-03
            3183            3174     193.130E-03     164.261E-03
            3168            3174     193.130E-03     164.261E-03
            3184            3174     193.130E-03     164.261E-03
            3168            3175     169.396E-03     135.613E-03
            3169            3175     169.396E-03     135.613E-03
            3184            3175     169.396E-03     135.613E-03
            3185            3175     169.396E-03     135.613E-03
            3186            3176     132.461E-03     126.266E-03
            3170            3176     132.461E-03     126.266E-03
            3185            3176     132.461E-03     126.266E-03
            3169            3176     132.461E-03     126.266E-03


  Minimum                            2.44681E-15     3.38111E-15
      At Element                            2576            2624
            Node                             562             565

  Maximum                                1.60683         1.67794
      At Element                            1073            1768
            Node                             317              16

           Total                     1.53567E+03     1.58514E+03


Field Output reported at element nodes for region: CRJ700-1.Region_4
   Computation algorithm: EXTRAPOLATE_COMPUTE_AVERAGE
   Averaged at nodes
   Averaging regions: ODB_REGIONS

   Element Label      Node Label         S.Mises         S.Mises
                                          @Loc 1          @Loc 2
-----------------------------------------------------------------
            1089               1     3.09662E-03     3.48389E-03
             545               1     3.09662E-03     3.48389E-03
            1688               4     42.1949E-03     65.8262E-03
            1617               4     42.1949E-03     65.8262E-03
            1074               5     10.1964E-03     10.4813E-03
             560               5     10.1964E-03     10.4813E-03
             640               6     22.3097E-15     23.3064E-15
             625               7     12.1676E-15     13.7541E-15
            1673              11         1.37323         1.42524
            1602              11         1.37323         1.42524
            2656              18     93.3406E-03     129.197E-03
            1752              18     93.3406E-03     129.197E-03
            1737              20         1.56377         1.67794
            2641              20         1.56377         1.67794
            2720              22     162.897E-03     172.249E-03
            2384              22     162.897E-03     172.249E-03
            2369              23         1.04710         1.09661
            2705              23         1.04710         1.09661
            2529              26     24.3316E-03     25.0215E-03
            2915              26     24.3316E-03     25.0215E-03
            2544              30     7.54655E-03     8.48864E-03
            2930              30     7.54655E-03     8.48864E-03
            3010              32     10.9148E-15     18.4208E-15
            2995              34     5.51087E-15     6.67051E-15
            1601              99     35.4039E-03     75.1303E-03
            1617              99     35.4039E-03     75.1303E-03
            1585             100     38.4107E-03     79.6465E-03
            1601             100     38.4107E-03     79.6465E-03
            1585             101     84.9424E-03     91.2979E-03
            1569             101     84.9424E-03     91.2979E-03
            1553             102     133.051E-03     144.617E-03
            1569             102     133.051E-03     144.617E-03
            1537             103     167.913E-03     205.042E-03
            1553             103     167.913E-03     205.042E-03
            1537             104     110.066E-03     139.687E-03
            1521             104     110.066E-03     139.687E-03
            1505             105     26.4320E-03     58.4046E-03
            1521             105     26.4320E-03     58.4046E-03
            1489             106     33.6818E-03     57.0153E-03
            1505             106     33.6818E-03     57.0153E-03
            1473             107     68.1584E-03     76.4279E-03
            1489             107     68.1584E-03     76.4279E-03
            1457             108     103.347E-03     103.617E-03
            1473             108     103.347E-03     103.617E-03
            1457             109     141.241E-03     148.625E-03
            1441             109     141.241E-03     148.625E-03
            1441             110     165.829E-03     198.762E-03
            1425             110     165.829E-03     198.762E-03
            1425             111     93.9062E-03     123.296E-03
            1409             111     93.9062E-03     123.296E-03
            1409             112     22.1282E-03     38.4019E-03
            1393             112     22.1282E-03     38.4019E-03
            1393             113     44.9413E-03     48.6759E-03
            1377             113     44.9413E-03     48.6759E-03
            1361             114     71.4948E-03     71.2575E-03
            1377             114     71.4948E-03     71.2575E-03
            1345             115     97.2474E-03     92.7755E-03
            1361             115     97.2474E-03     92.7755E-03
            1345             116     124.486E-03     126.539E-03
            1329             116     124.486E-03     126.539E-03
            1329             117     140.002E-03     165.217E-03
            1313             117     140.002E-03     165.217E-03
            1313             118     85.6393E-03     109.076E-03
            1297             118     85.6393E-03     109.076E-03
            1281             119     42.0261E-03     44.7147E-03
            1297             119     42.0261E-03     44.7147E-03
            1281             120     63.6090E-03     57.7340E-03
            1265             120     63.6090E-03     57.7340E-03
            1249             121     81.2098E-03     71.9578E-03
            1265             121     81.2098E-03     71.9578E-03
            1249             122     99.1088E-03     94.8300E-03
            1233             122     99.1088E-03     94.8300E-03
            1233             123     107.155E-03     122.190E-03
            1217             123     107.155E-03     122.190E-03
            1217             124     78.9138E-03     96.6137E-03
            1201             124     78.9138E-03     96.6137E-03
            1185             125     59.4464E-03     64.8041E-03
            1201             125     59.4464E-03     64.8041E-03
            1185             126     73.0433E-03     64.3127E-03
            1169             126     73.0433E-03     64.3127E-03
            1153             127     79.7907E-03     70.8760E-03
            1169             127     79.7907E-03     70.8760E-03
            1137             128     86.5516E-03     77.0420E-03
            1153             128     86.5516E-03     77.0420E-03
            1137             129     93.7768E-03     87.6463E-03
            1121             129     93.7768E-03     87.6463E-03
            1121             130     92.1905E-03     104.164E-03
            1105             130     92.1905E-03     104.164E-03
            1105             131     47.1804E-03     57.3960E-03
            1089             131     47.1804E-03     57.3960E-03
             546             132     3.15128E-03     3.54814E-03
            1088             132     3.15128E-03     3.54814E-03
             545             132     3.15128E-03     3.54814E-03
            1089             132     3.15128E-03     3.54814E-03
             546             133     3.31816E-03     3.72723E-03
            1087             133     3.31816E-03     3.72723E-03
             547             133     3.31816E-03     3.72723E-03
            1088             133     3.31816E-03     3.72723E-03
            1087             134     3.58984E-03     3.99915E-03
             547             134     3.58984E-03     3.99915E-03
            1086             134     3.58984E-03     3.99915E-03
             548             134     3.58984E-03     3.99915E-03
            1086             135     3.94514E-03     4.34676E-03
             549             135     3.94514E-03     4.34676E-03
            1085             135     3.94514E-03     4.34676E-03
             548             135     3.94514E-03     4.34676E-03
            1085             136     4.36385E-03     4.75364E-03
            1084             136     4.36385E-03     4.75364E-03
             549             136     4.36385E-03     4.75364E-03
             550             136     4.36385E-03     4.75364E-03
             551             137     4.82957E-03     5.20595E-03
             550             137     4.82957E-03     5.20595E-03
            1083             137     4.82957E-03     5.20595E-03
            1084             137     4.82957E-03     5.20595E-03
             551             138     5.32998E-03     5.69286E-03
            1082             138     5.32998E-03     5.69286E-03
             552             138     5.32998E-03     5.69286E-03
            1083             138     5.32998E-03     5.69286E-03
            1082             139     5.85615E-03     6.20622E-03
            1081             139     5.85615E-03     6.20622E-03
             552             139     5.85615E-03     6.20622E-03
             553             139     5.85615E-03     6.20622E-03
             554             140     6.40172E-03     6.73998E-03
            1080             140     6.40172E-03     6.73998E-03
            1081             140     6.40172E-03     6.73998E-03
             553             140     6.40172E-03     6.73998E-03
             555             141     6.96211E-03     7.28963E-03
            1079             141     6.96211E-03     7.28963E-03
            1080             141     6.96211E-03     7.28963E-03
             554             141     6.96211E-03     7.28963E-03
            1079             142     7.53399E-03     7.85184E-03
            1078             142     7.53399E-03     7.85184E-03
             556             142     7.53399E-03     7.85184E-03
             555             142     7.53399E-03     7.85184E-03
             556             143     8.11492E-03     8.42407E-03
             557             143     8.11492E-03     8.42407E-03
            1078             143     8.11492E-03     8.42407E-03
            1077             143     8.11492E-03     8.42407E-03
            1076             144     8.70309E-03     9.00440E-03
            1077             144     8.70309E-03     9.00440E-03
             557             144     8.70309E-03     9.00440E-03
             558             144     8.70309E-03     9.00440E-03
             558             145     9.29712E-03     9.59137E-03
             559             145     9.29712E-03     9.59137E-03
            1076             145     9.29712E-03     9.59137E-03
            1075             145     9.29712E-03     9.59137E-03
             559             146     9.89594E-03     10.1838E-03
            1075             146     9.89594E-03     10.1838E-03
             560             146     9.89594E-03     10.1838E-03
            1074             146     9.89594E-03     10.1838E-03
             576             147     9.57302E-15     11.0304E-15
             560             147     9.57302E-15     11.0304E-15
             592             148     9.59541E-15     9.68974E-15
             576             148     9.59541E-15     9.68974E-15
             608             149     16.0537E-15     16.8751E-15
             592             149     16.0537E-15     16.8751E-15
             624             150     15.5466E-15     15.8278E-15
             608             150     15.5466E-15     15.8278E-15
             624             151     14.4781E-15     15.0802E-15
             640             151     14.4781E-15     15.0802E-15
             640             152     17.4152E-15     16.4451E-15
             639             152     17.4152E-15     16.4451E-15
             639             153     13.4303E-15     11.0623E-15
             638             153     13.4303E-15     11.0623E-15
             638             154     17.3685E-15     17.2466E-15
             637             154     17.3685E-15     17.2466E-15
             636             155     17.9375E-15     19.6005E-15
             637             155     17.9375E-15     19.6005E-15
             636             156     11.6702E-15     11.9352E-15
             635             156     11.6702E-15     11.9352E-15
             635             157     8.45401E-15     9.85283E-15
             634             157     8.45401E-15     9.85283E-15
             634             158     10.7333E-15     13.7394E-15
             633             158     10.7333E-15     13.7394E-15
             633             159     7.77603E-15     8.76272E-15
             632             159     7.77603E-15     8.76272E-15
             631             160     7.12654E-15     8.42750E-15
             632             160     7.12654E-15     8.42750E-15
             631             161     6.08925E-15     8.47159E-15
             630             161     6.08925E-15     8.47159E-15
             629             162     4.03170E-15     6.36370E-15
             630             162     4.03170E-15     6.36370E-15
             628             163     10.5723E-15     11.7018E-15
             629             163     10.5723E-15     11.7018E-15
             627             164     13.8280E-15     14.4952E-15
             628             164     13.8280E-15     14.4952E-15
             627             165     12.9899E-15     11.8434E-15
             626             165     12.9899E-15     11.8434E-15
             625             166     12.3145E-15     11.1727E-15
             626             166     12.3145E-15     11.1727E-15
             625             167     18.3944E-15     21.6664E-15
             609             167     18.3944E-15     21.6664E-15
             609             168     20.7756E-15     24.7143E-15
             593             168     20.7756E-15     24.7143E-15
             577             169     19.0118E-15     25.2673E-15
             593             169     19.0118E-15     25.2673E-15
             561             170     11.9271E-15     18.9203E-15
             577             170     11.9271E-15     18.9203E-15
             561             171     7.58583E-15     5.05353E-15
             545             171     7.58583E-15     5.05353E-15
            1074             194     45.9785E-03     55.8379E-03
            1090             194     45.9785E-03     55.8379E-03
            1090             195     91.8123E-03     101.066E-03
            1106             195     91.8123E-03     101.066E-03
            1106             196     138.952E-03     135.719E-03
            1122             196     138.952E-03     135.719E-03
            1122             197     191.922E-03     187.207E-03
            1138             197     191.922E-03     187.207E-03
            1154             198     239.330E-03     246.025E-03
            1138             198     239.330E-03     246.025E-03
            1154             199     298.801E-03     295.550E-03
            1170             199     298.801E-03     295.550E-03
            1186             200     349.158E-03     364.457E-03
            1170             200     349.158E-03     364.457E-03
            1186             201     332.525E-03     343.944E-03
            1202             201     332.525E-03     343.944E-03
            1218             202     335.174E-03     324.347E-03
            1202             202     335.174E-03     324.347E-03
            1218             203     409.284E-03     411.052E-03
            1234             203     409.284E-03     411.052E-03
            1234             204     471.798E-03     483.253E-03
            1250             204     471.798E-03     483.253E-03
            1250             205     535.101E-03     535.594E-03
            1266             205     535.101E-03     535.594E-03
            1282             206     586.941E-03     602.635E-03
            1266             206     586.941E-03     602.635E-03
            1282             207     569.296E-03     585.559E-03
            1298             207     569.296E-03     585.559E-03
            1298             208     582.872E-03     568.084E-03
            1314             208     582.872E-03     568.084E-03
            1314             209     654.805E-03     663.139E-03
            1330             209     654.805E-03     663.139E-03
            1330             210     724.419E-03     730.448E-03
            1346             210     724.419E-03     730.448E-03
            1346             211     777.535E-03     795.341E-03
            1362             211     777.535E-03     795.341E-03
            1362             212     838.305E-03     841.791E-03
            1378             212     838.305E-03     841.791E-03
            1394             213     884.091E-03     899.558E-03
            1378             213     884.091E-03     899.558E-03
            1394             214     855.315E-03     878.537E-03
            1410             214     855.315E-03     878.537E-03
            1410             215     872.337E-03     857.341E-03
            1426             215     872.337E-03     857.341E-03
            1426             216     948.767E-03     960.228E-03
            1442             216     948.767E-03     960.228E-03
            1458             217         1.02033         1.03160
            1442             217         1.02033         1.03160
            1458             218         1.07366         1.09672
            1474             218         1.07366         1.09672
            1490             219         1.13302         1.13949
            1474             219         1.13302         1.13949
            1506             220         1.17453         1.19002
            1490             220         1.17453         1.19002
            1506             221         1.13901         1.16925
            1522             221         1.13901         1.16925
            1522             222         1.15785         1.14984
            1538             222         1.15785         1.14984
            1554             223         1.24856         1.25599
            1538             223         1.24856         1.25599
            1570             224         1.31130         1.34631
            1554             224         1.31130         1.34631
            1586             225         1.37614         1.38193
            1570             225         1.37614         1.38193
            1602             226         1.41228         1.43157
            1586             226         1.41228         1.43157
            1752             339     46.5244E-03     75.0629E-03
            1736             339     46.5244E-03     75.0629E-03
            1736             340     83.7740E-03     117.016E-03
            1720             340     83.7740E-03     117.016E-03
            1720             341     137.004E-03     169.095E-03
            1704             341     137.004E-03     169.095E-03
            1688             342     95.4132E-03     119.056E-03
            1704             342     95.4132E-03     119.056E-03
            1688             343     80.0427E-03     107.159E-03
            1687             343     80.0427E-03     107.159E-03
            1616             343     80.0427E-03     107.159E-03
            1617             343     80.0427E-03     107.159E-03
            1615             344     158.172E-03     191.245E-03
            1616             344     158.172E-03     191.245E-03
            1687             344     158.172E-03     191.245E-03
            1686             344     158.172E-03     191.245E-03
            1686             345     240.133E-03     276.359E-03
            1685             345     240.133E-03     276.359E-03
            1614             345     240.133E-03     276.359E-03
            1615             345     240.133E-03     276.359E-03
            1613             346     323.711E-03     361.246E-03
            1685             346     323.711E-03     361.246E-03
            1684             346     323.711E-03     361.246E-03
            1614             346     323.711E-03     361.246E-03
            1684             347     407.884E-03     445.799E-03
            1683             347     407.884E-03     445.799E-03
            1612             347     407.884E-03     445.799E-03
            1613             347     407.884E-03     445.799E-03
            1683             348     492.099E-03     530.060E-03
            1682             348     492.099E-03     530.060E-03
            1612             348     492.099E-03     530.060E-03
            1611             348     492.099E-03     530.060E-03
            1611             349     576.315E-03     614.059E-03
            1682             349     576.315E-03     614.059E-03
            1610             349     576.315E-03     614.059E-03
            1681             349     576.315E-03     614.059E-03
            1609             350     660.020E-03     697.803E-03
            1680             350     660.020E-03     697.803E-03
            1681             350     660.020E-03     697.803E-03
            1610             350     660.020E-03     697.803E-03
            1679             351     743.547E-03     780.990E-03
            1680             351     743.547E-03     780.990E-03
            1608             351     743.547E-03     780.990E-03
            1609             351     743.547E-03     780.990E-03
            1678             352     826.394E-03     863.670E-03
            1608             352     826.394E-03     863.670E-03
            1679             352     826.394E-03     863.670E-03
            1607             352     826.394E-03     863.670E-03
            1678             353     909.622E-03     945.661E-03
            1606             353     909.622E-03     945.661E-03
            1607             353     909.622E-03     945.661E-03
            1677             353     909.622E-03     945.661E-03
            1676             354     992.791E-03         1.02751
            1606             354     992.791E-03         1.02751
            1605             354     992.791E-03         1.02751
            1677             354     992.791E-03         1.02751
            1676             355         1.08002         1.11175
            1675             355         1.08002         1.11175
            1605             355         1.08002         1.11175
            1604             355         1.08002         1.11175
            1675             356         1.17144         1.20245
            1603             356         1.17144         1.20245
            1604             356         1.17144         1.20245
            1674             356         1.17144         1.20245
            1674             357         1.29477         1.33773
            1602             357         1.29477         1.33773
            1673             357         1.29477         1.33773
            1603             357         1.29477         1.33773
            2656             374     114.509E-03     172.502E-03
            2655             374     114.509E-03     172.502E-03
            1752             374     114.509E-03     172.502E-03
            1751             374     114.509E-03     172.502E-03
            1751             375     174.301E-03     262.541E-03
            1750             375     174.301E-03     262.541E-03
            2654             375     174.301E-03     262.541E-03
            2655             375     174.301E-03     262.541E-03
            1750             376     257.250E-03     356.073E-03
            1749             376     257.250E-03     356.073E-03
            2654             376     257.250E-03     356.073E-03
            2653             376     257.250E-03     356.073E-03
            2653             377     348.023E-03     450.505E-03
            1749             377     348.023E-03     450.505E-03
            1748             377     348.023E-03     450.505E-03
            2652             377     348.023E-03     450.505E-03
            2651             378     442.071E-03     545.609E-03
            2652             378     442.071E-03     545.609E-03
            1747             378     442.071E-03     545.609E-03
            1748             378     442.071E-03     545.609E-03
            1747             379     536.932E-03     641.330E-03
            2650             379     536.932E-03     641.330E-03
            2651             379     536.932E-03     641.330E-03
            1746             379     536.932E-03     641.330E-03
            1746             380     632.460E-03     737.113E-03
            2650             380     632.460E-03     737.113E-03
            1745             380     632.460E-03     737.113E-03
            2649             380     632.460E-03     737.113E-03
            1745             381     727.738E-03     833.255E-03
            2648             381     727.738E-03     833.255E-03
            1744             381     727.738E-03     833.255E-03
            2649             381     727.738E-03     833.255E-03
            1744             382     823.621E-03     928.701E-03
            2648             382     823.621E-03     928.701E-03
            1743             382     823.621E-03     928.701E-03
            2647             382     823.621E-03     928.701E-03
            2646             383     918.161E-03         1.02458
            2647             383     918.161E-03         1.02458
            1743             383     918.161E-03         1.02458
            1742             383     918.161E-03         1.02458
            1741             384         1.01373         1.11869
            2645             384         1.01373         1.11869
            1742             384         1.01373         1.11869
            2646             384         1.01373         1.11869
            1740             385         1.10634         1.21282
            2645             385         1.10634         1.21282
            1741             385         1.10634         1.21282
            2644             385         1.10634         1.21282
            1740             386         1.20387         1.30705
            2643             386         1.20387         1.30705
            1739             386         1.20387         1.30705
            2644             386         1.20387         1.30705
            1739             387         1.29291         1.39602
            2643             387         1.29291         1.39602
            1738             387         1.29291         1.39602
            2642             387         1.29291         1.39602
            2642             388         1.44544         1.55888
            1737             388         1.44544         1.55888
            2641             388         1.44544         1.55888
            1738             388         1.44544         1.55888
            1737             389         1.60683         1.63919
            1721             389         1.60683         1.63919
            1705             390         1.55821         1.56342
            1721             390         1.55821         1.56342
            1689             391         1.45087         1.46212
            1705             391         1.45087         1.46212
            1673             392         1.36947         1.37918
            1689             392         1.36947         1.37918
            2704             412     201.804E-03     207.009E-03
            2720             412     201.804E-03     207.009E-03
            2688             413     151.399E-03     162.055E-03
            2704             413     151.399E-03     162.055E-03
            2672             414     152.343E-03     148.839E-03
            2688             414     152.343E-03     148.839E-03
            2672             415     172.766E-03     180.950E-03
            2656             415     172.766E-03     180.950E-03
            2657             420         1.45199         1.47436
            2641             420         1.45199         1.47436
            2657             421         1.38343         1.40351
            2673             421         1.38343         1.40351
            2689             422         1.32813         1.37916
            2673             422         1.32813         1.37916
            2705             423         1.15007         1.10756
            2689             423         1.15007         1.10756
            2369             444         1.00653         1.05915
            2385             444         1.00653         1.05915
            2385             445     846.678E-03     796.237E-03
            2401             445     846.678E-03     796.237E-03
            2401             446     802.038E-03     837.674E-03
            2417             446     802.038E-03     837.674E-03
            2433             447     832.826E-03     870.850E-03
            2417             447     832.826E-03     870.850E-03
            2433             448     712.703E-03     704.361E-03
            2449             448     712.703E-03     704.361E-03
            2449             449     569.847E-03     585.801E-03
            2465             449     569.847E-03     585.801E-03
            2481             450     456.362E-03     444.731E-03
            2465             450     456.362E-03     444.731E-03
            2481             451     329.280E-03     321.218E-03
            2497             451     329.280E-03     321.218E-03
            2513             452     216.720E-03     240.567E-03
            2497             452     216.720E-03     240.567E-03
            2513             453     108.729E-03     134.054E-03
            2529             453     108.729E-03     134.054E-03
            2370             507         1.01485         1.05244
            2705             507         1.01485         1.05244
            2369             507         1.01485         1.05244
            2706             507         1.01485         1.05244
            2707             508     963.724E-03     986.730E-03
            2706             508     963.724E-03     986.730E-03
            2370             508     963.724E-03     986.730E-03
            2371             508     963.724E-03     986.730E-03
            2707             509     908.849E-03     930.767E-03
            2708             509     908.849E-03     930.767E-03
            2372             509     908.849E-03     930.767E-03
            2371             509     908.849E-03     930.767E-03
            2372             510     840.764E-03     864.910E-03
            2708             510     840.764E-03     864.910E-03
            2373             510     840.764E-03     864.910E-03
            2709             510     840.764E-03     864.910E-03
            2374             511     774.822E-03     799.190E-03
            2710             511     774.822E-03     799.190E-03
            2373             511     774.822E-03     799.190E-03
            2709             511     774.822E-03     799.190E-03
            2710             512     707.573E-03     731.880E-03
            2374             512     707.573E-03     731.880E-03
            2375             512     707.573E-03     731.880E-03
            2711             512     707.573E-03     731.880E-03
            2375             513     640.695E-03     665.051E-03
            2376             513     640.695E-03     665.051E-03
            2712             513     640.695E-03     665.051E-03
            2711             513     640.695E-03     665.051E-03
            2712             514     573.841E-03     598.180E-03
            2376             514     573.841E-03     598.180E-03
            2377             514     573.841E-03     598.180E-03
            2713             514     573.841E-03     598.180E-03
            2713             515     507.724E-03     532.079E-03
            2378             515     507.724E-03     532.079E-03
            2714             515     507.724E-03     532.079E-03
            2377             515     507.724E-03     532.079E-03
            2379             516     442.674E-03     466.921E-03
            2714             516     442.674E-03     466.921E-03
            2715             516     442.674E-03     466.921E-03
            2378             516     442.674E-03     466.921E-03
            2380             517     379.425E-03     403.412E-03
            2715             517     379.425E-03     403.412E-03
            2716             517     379.425E-03     403.412E-03
            2379             517     379.425E-03     403.412E-03
            2717             518     319.126E-03     342.473E-03
            2716             518     319.126E-03     342.473E-03
            2380             518     319.126E-03     342.473E-03
            2381             518     319.126E-03     342.473E-03
            2382             519     263.714E-03     286.525E-03
            2717             519     263.714E-03     286.525E-03
            2718             519     263.714E-03     286.525E-03
            2381             519     263.714E-03     286.525E-03
            2382             520     219.504E-03     239.682E-03
            2718             520     219.504E-03     239.682E-03
            2719             520     219.504E-03     239.682E-03
            2383             520     219.504E-03     239.682E-03
            2719             521     182.128E-03     195.743E-03
            2720             521     182.128E-03     195.743E-03
            2384             521     182.128E-03     195.743E-03
            2383             521     182.128E-03     195.743E-03
            2384             522     157.197E-03     163.306E-03
            2400             522     157.197E-03     163.306E-03
            2416             523     192.183E-03     192.350E-03
            2400             523     192.183E-03     192.350E-03
            2432             524     156.983E-03     173.356E-03
            2416             524     156.983E-03     173.356E-03
            2448             525     145.155E-03     158.547E-03
            2432             525     145.155E-03     158.547E-03
            2464             526     177.791E-03     156.516E-03
            2448             526     177.791E-03     156.516E-03
            2464             527     193.668E-03     171.549E-03
            2480             527     193.668E-03     171.549E-03
            2496             528     209.553E-03     185.999E-03
            2480             528     209.553E-03     185.999E-03
            2496             529     226.297E-03     211.395E-03
            2512             529     226.297E-03     211.395E-03
            2528             530     221.778E-03     250.805E-03
            2512             530     221.778E-03     250.805E-03
            2544             531     113.560E-03     138.188E-03
            2528             531     113.560E-03     138.188E-03
            2929             532     7.67381E-03     8.63825E-03
            2930             532     7.67381E-03     8.63825E-03
            2543             532     7.67381E-03     8.63825E-03
            2544             532     7.67381E-03     8.63825E-03
            2543             533     8.06290E-03     9.05585E-03
            2542             533     8.06290E-03     9.05585E-03
            2928             533     8.06290E-03     9.05585E-03
            2929             533     8.06290E-03     9.05585E-03
            2542             534     8.69787E-03     9.69131E-03
            2928             534     8.69787E-03     9.69131E-03
            2541             534     8.69787E-03     9.69131E-03
            2927             534     8.69787E-03     9.69131E-03
            2541             535     9.53058E-03     10.5058E-03
            2927             535     9.53058E-03     10.5058E-03
            2926             535     9.53058E-03     10.5058E-03
            2540             535     9.53058E-03     10.5058E-03
            2926             536     10.5146E-03     11.4614E-03
            2539             536     10.5146E-03     11.4614E-03
            2925             536     10.5146E-03     11.4614E-03
            2540             536     10.5146E-03     11.4614E-03
            2538             537     11.6117E-03     12.5261E-03
            2925             537     11.6117E-03     12.5261E-03
            2924             537     11.6117E-03     12.5261E-03
            2539             537     11.6117E-03     12.5261E-03
            2924             538     12.7927E-03     13.6744E-03
            2538             538     12.7927E-03     13.6744E-03
            2923             538     12.7927E-03     13.6744E-03
            2537             538     12.7927E-03     13.6744E-03
            2536             539     14.0365E-03     14.8870E-03
            2923             539     14.0365E-03     14.8870E-03
            2922             539     14.0365E-03     14.8870E-03
            2537             539     14.0365E-03     14.8870E-03
            2536             540     15.3277E-03     16.1492E-03
            2535             540     15.3277E-03     16.1492E-03
            2922             540     15.3277E-03     16.1492E-03
            2921             540     15.3277E-03     16.1492E-03
            2921             541     16.6552E-03     17.4504E-03
            2920             541     16.6552E-03     17.4504E-03
            2534             541     16.6552E-03     17.4504E-03
            2535             541     16.6552E-03     17.4504E-03
            2534             542     18.0109E-03     18.7824E-03
            2533             542     18.0109E-03     18.7824E-03
            2920             542     18.0109E-03     18.7824E-03
            2919             542     18.0109E-03     18.7824E-03
            2532             543     19.3890E-03     20.1390E-03
            2533             543     19.3890E-03     20.1390E-03
            2919             543     19.3890E-03     20.1390E-03
            2918             543     19.3890E-03     20.1390E-03
            2531             544     20.7850E-03     21.5157E-03
            2532             544     20.7850E-03     21.5157E-03
            2918             544     20.7850E-03     21.5157E-03
            2917             544     20.7850E-03     21.5157E-03
            2530             545     22.1954E-03     22.9087E-03
            2531             545     22.1954E-03     22.9087E-03
            2917             545     22.1954E-03     22.9087E-03
            2916             545     22.1954E-03     22.9087E-03
            2530             546     23.6177E-03     24.3152E-03
            2916             546     23.6177E-03     24.3152E-03
            2915             546     23.6177E-03     24.3152E-03
            2529             546     23.6177E-03     24.3152E-03
            3010             582     11.6351E-15     15.4522E-15
            2994             582     11.6351E-15     15.4522E-15
            2978             583     13.8378E-15     15.3496E-15
            2994             583     13.8378E-15     15.3496E-15
            2978             584     14.6347E-15     16.2403E-15
            2962             584     14.6347E-15     16.2403E-15
            2946             585     14.1495E-15     13.2506E-15
            2962             585     14.1495E-15     13.2506E-15
            2930             586     10.9913E-15     11.0725E-15
            2946             586     10.9913E-15     11.0725E-15
            2979             596     3.01170E-15     3.59152E-15
            2995             596     3.01170E-15     3.59152E-15
            2979             597     4.88025E-15     5.19382E-15
            2963             597     4.88025E-15     5.19382E-15
            2947             598     11.4135E-15     12.0050E-15
            2963             598     11.4135E-15     12.0050E-15
            2947             599     9.52094E-15     9.72355E-15
            2931             599     9.52094E-15     9.72355E-15
            2915             600     5.63489E-15     5.14031E-15
            2931             600     5.63489E-15     5.14031E-15
            3009             616     7.94219E-15     14.0395E-15
            3010             616     7.94219E-15     14.0395E-15
            3008             617     15.0095E-15     14.3409E-15
            3009             617     15.0095E-15     14.3409E-15
            3007             618     19.5209E-15     16.9086E-15
            3008             618     19.5209E-15     16.9086E-15
            3006             619     14.0714E-15     12.7727E-15
            3007             619     14.0714E-15     12.7727E-15
            3006             620     13.9925E-15     12.5243E-15
            3005             620     13.9925E-15     12.5243E-15
            3005             621     11.0693E-15     12.1204E-15
            3004             621     11.0693E-15     12.1204E-15
            3003             622     9.16325E-15     13.4306E-15
            3004             622     9.16325E-15     13.4306E-15
            3002             623     8.55396E-15     13.0135E-15
            3003             623     8.55396E-15     13.0135E-15
            3002             624     5.74247E-15     7.65747E-15
            3001             624     5.74247E-15     7.65747E-15
            3001             625     5.30212E-15     5.44086E-15
            3000             625     5.30212E-15     5.44086E-15
            3000             626     7.48038E-15     7.61764E-15
            2999             626     7.48038E-15     7.61764E-15
            2998             627     7.08022E-15     8.33842E-15
            2999             627     7.08022E-15     8.33842E-15
            2997             628     6.50768E-15     7.29011E-15
            2998             628     6.50768E-15     7.29011E-15
            2996             629     7.78644E-15     8.28346E-15
            2997             629     7.78644E-15     8.28346E-15
            2995             630     6.73645E-15     7.38759E-15
            2996             630     6.73645E-15     7.38759E-15
             545            1130     20.0517E-15     15.9118E-15
             562            1130     20.0517E-15     15.9118E-15
             561            1130     20.0517E-15     15.9118E-15
             546            1130     20.0517E-15     15.9118E-15
             546            1131     26.9448E-15     22.1575E-15
             562            1131     26.9448E-15     22.1575E-15
             563            1131     26.9448E-15     22.1575E-15
             547            1131     26.9448E-15     22.1575E-15
             547            1132     18.0011E-15     16.8619E-15
             563            1132     18.0011E-15     16.8619E-15
             564            1132     18.0011E-15     16.8619E-15
             548            1132     18.0011E-15     16.8619E-15
             565            1133     17.1006E-15     19.8426E-15
             549            1133     17.1006E-15     19.8426E-15
             564            1133     17.1006E-15     19.8426E-15
             548            1133     17.1006E-15     19.8426E-15
             565            1134     18.5718E-15     21.6529E-15
             566            1134     18.5718E-15     21.6529E-15
             549            1134     18.5718E-15     21.6529E-15
             550            1134     18.5718E-15     21.6529E-15
             550            1135     14.8677E-15     16.8469E-15
             566            1135     14.8677E-15     16.8469E-15
             567            1135     14.8677E-15     16.8469E-15
             551            1135     14.8677E-15     16.8469E-15
             567            1136     14.9216E-15     15.0189E-15
             568            1136     14.9216E-15     15.0189E-15
             552            1136     14.9216E-15     15.0189E-15
             551            1136     14.9216E-15     15.0189E-15
             552            1137     13.4095E-15     11.2021E-15
             569            1137     13.4095E-15     11.2021E-15
             568            1137     13.4095E-15     11.2021E-15
             553            1137     13.4095E-15     11.2021E-15
             554            1138     9.35121E-15     7.08220E-15
             569            1138     9.35121E-15     7.08220E-15
             570            1138     9.35121E-15     7.08220E-15
             553            1138     9.35121E-15     7.08220E-15
             555            1139     9.80513E-15     9.00276E-15
             554            1139     9.80513E-15     9.00276E-15
             570            1139     9.80513E-15     9.00276E-15
             571            1139     9.80513E-15     9.00276E-15
             571            1140     11.2023E-15     10.9929E-15
             556            1140     11.2023E-15     10.9929E-15
             572            1140     11.2023E-15     10.9929E-15
             555            1140     11.2023E-15     10.9929E-15
             556            1141     11.4656E-15     13.0221E-15
             557            1141     11.4656E-15     13.0221E-15
             572            1141     11.4656E-15     13.0221E-15
             573            1141     11.4656E-15     13.0221E-15
             557            1142     14.7328E-15     18.1488E-15
             573            1142     14.7328E-15     18.1488E-15
             558            1142     14.7328E-15     18.1488E-15
             574            1142     14.7328E-15     18.1488E-15
             559            1143     14.3697E-15     15.9887E-15
             558            1143     14.3697E-15     15.9887E-15
             575            1143     14.3697E-15     15.9887E-15
             574            1143     14.3697E-15     15.9887E-15
             576            1144     9.70988E-15     10.4351E-15
             575            1144     9.70988E-15     10.4351E-15
             560            1144     9.70988E-15     10.4351E-15
             559            1144     9.70988E-15     10.4351E-15
             561            1145     15.3350E-15     18.5247E-15
             562            1145     15.3350E-15     18.5247E-15
             577            1145     15.3350E-15     18.5247E-15
             578            1145     15.3350E-15     18.5247E-15
             563            1146     17.8972E-15     19.9302E-15
             578            1146     17.8972E-15     19.9302E-15
             579            1146     17.8972E-15     19.9302E-15
             562            1146     17.8972E-15     19.9302E-15
             564            1147     13.9637E-15     15.0484E-15
             580            1147     13.9637E-15     15.0484E-15
             579            1147     13.9637E-15     15.0484E-15
             563            1147     13.9637E-15     15.0484E-15
             581            1148     12.5578E-15     12.5197E-15
             564            1148     12.5578E-15     12.5197E-15
             580            1148     12.5578E-15     12.5197E-15
             565            1148     12.5578E-15     12.5197E-15
             566            1149     13.7883E-15     14.8583E-15
             565            1149     13.7883E-15     14.8583E-15
             581            1149     13.7883E-15     14.8583E-15
             582            1149     13.7883E-15     14.8583E-15
             567            1150     12.1331E-15     13.4215E-15
             566            1150     12.1331E-15     13.4215E-15
             583            1150     12.1331E-15     13.4215E-15
             582            1150     12.1331E-15     13.4215E-15
             568            1151     13.2359E-15     14.7542E-15
             567            1151     13.2359E-15     14.7542E-15
             583            1151     13.2359E-15     14.7542E-15
             584            1151     13.2359E-15     14.7542E-15
             584            1152     16.6274E-15     16.1546E-15
             568            1152     16.6274E-15     16.1546E-15
             585            1152     16.6274E-15     16.1546E-15
             569            1152     16.6274E-15     16.1546E-15
             570            1153     16.2819E-15     14.9206E-15
             586            1153     16.2819E-15     14.9206E-15
             569            1153     16.2819E-15     14.9206E-15
             585            1153     16.2819E-15     14.9206E-15
             571            1154     14.1820E-15     14.3815E-15
             586            1154     14.1820E-15     14.3815E-15
             587            1154     14.1820E-15     14.3815E-15
             570            1154     14.1820E-15     14.3815E-15
             588            1155     13.3820E-15     13.5055E-15
             571            1155     13.3820E-15     13.5055E-15
             587            1155     13.3820E-15     13.5055E-15
             572            1155     13.3820E-15     13.5055E-15
             572            1156     14.1682E-15     14.1491E-15
             589            1156     14.1682E-15     14.1491E-15
             588            1156     14.1682E-15     14.1491E-15
             573            1156     14.1682E-15     14.1491E-15
             590            1157     14.9134E-15     16.5945E-15
             574            1157     14.9134E-15     16.5945E-15
             573            1157     14.9134E-15     16.5945E-15
             589            1157     14.9134E-15     16.5945E-15
             574            1158     13.5841E-15     14.2014E-15
             591            1158     13.5841E-15     14.2014E-15
             575            1158     13.5841E-15     14.2014E-15
             590            1158     13.5841E-15     14.2014E-15
             591            1159     11.0108E-15     10.8569E-15
             592            1159     11.0108E-15     10.8569E-15
             575            1159     11.0108E-15     10.8569E-15
             576            1159     11.0108E-15     10.8569E-15
             578            1160     15.7108E-15     19.2424E-15
             577            1160     15.7108E-15     19.2424E-15
             593            1160     15.7108E-15     19.2424E-15
             594            1160     15.7108E-15     19.2424E-15
             594            1161     11.8616E-15     14.5992E-15
             578            1161     11.8616E-15     14.5992E-15
             595            1161     11.8616E-15     14.5992E-15
             579            1161     11.8616E-15     14.5992E-15
             596            1162     12.7661E-15     14.2800E-15
             579            1162     12.7661E-15     14.2800E-15
             580            1162     12.7661E-15     14.2800E-15
             595            1162     12.7661E-15     14.2800E-15
             581            1163     13.6115E-15     12.7026E-15
             597            1163     13.6115E-15     12.7026E-15
             596            1163     13.6115E-15     12.7026E-15
             580            1163     13.6115E-15     12.7026E-15
             582            1164     8.72190E-15     8.46044E-15
             597            1164     8.72190E-15     8.46044E-15
             598            1164     8.72190E-15     8.46044E-15
             581            1164     8.72190E-15     8.46044E-15
             583            1165     5.83478E-15     6.18271E-15
             582            1165     5.83478E-15     6.18271E-15
             599            1165     5.83478E-15     6.18271E-15
             598            1165     5.83478E-15     6.18271E-15
             600            1166     9.45576E-15     10.4715E-15
             584            1166     9.45576E-15     10.4715E-15
             599            1166     9.45576E-15     10.4715E-15
             583            1166     9.45576E-15     10.4715E-15
             600            1167     18.0040E-15     18.8631E-15
             585            1167     18.0040E-15     18.8631E-15
             601            1167     18.0040E-15     18.8631E-15
             584            1167     18.0040E-15     18.8631E-15
             585            1168     22.2521E-15     21.4998E-15
             601            1168     22.2521E-15     21.4998E-15
             602            1168     22.2521E-15     21.4998E-15
             586            1168     22.2521E-15     21.4998E-15
             586            1169     17.2166E-15     16.9634E-15
             603            1169     17.2166E-15     16.9634E-15
             602            1169     17.2166E-15     16.9634E-15
             587            1169     17.2166E-15     16.9634E-15
             588            1170     14.3581E-15     14.9149E-15
             603            1170     14.3581E-15     14.9149E-15
             604            1170     14.3581E-15     14.9149E-15
             587            1170     14.3581E-15     14.9149E-15
             589            1171     17.3895E-15     16.0595E-15
             605            1171     17.3895E-15     16.0595E-15
             604            1171     17.3895E-15     16.0595E-15
             588            1171     17.3895E-15     16.0595E-15
             605            1172     17.4539E-15     16.4512E-15
             606            1172     17.4539E-15     16.4512E-15
             590            1172     17.4539E-15     16.4512E-15
             589            1172     17.4539E-15     16.4512E-15
             590            1173     17.7014E-15     16.2623E-15
             606            1173     17.7014E-15     16.2623E-15
             591            1173     17.7014E-15     16.2623E-15
             607            1173     17.7014E-15     16.2623E-15
             592            1174     18.4334E-15     17.3838E-15
             608            1174     18.4334E-15     17.3838E-15
             607            1174     18.4334E-15     17.3838E-15
             591            1174     18.4334E-15     17.3838E-15
             610            1175     15.1289E-15     18.3262E-15
             594            1175     15.1289E-15     18.3262E-15
             609            1175     15.1289E-15     18.3262E-15
             593            1175     15.1289E-15     18.3262E-15
             594            1176     16.0661E-15     14.3874E-15
             611            1176     16.0661E-15     14.3874E-15
             595            1176     16.0661E-15     14.3874E-15
             610            1176     16.0661E-15     14.3874E-15
             596            1177     17.7112E-15     14.4483E-15
             595            1177     17.7112E-15     14.4483E-15
             611            1177     17.7112E-15     14.4483E-15
             612            1177     17.7112E-15     14.4483E-15
             613            1178     11.8246E-15     10.9574E-15
             596            1178     11.8246E-15     10.9574E-15
             612            1178     11.8246E-15     10.9574E-15
             597            1178     11.8246E-15     10.9574E-15
             597            1179     7.85206E-15     8.27573E-15
             613            1179     7.85206E-15     8.27573E-15
             614            1179     7.85206E-15     8.27573E-15
             598            1179     7.85206E-15     8.27573E-15
             615            1180     6.02440E-15     6.13604E-15
             614            1180     6.02440E-15     6.13604E-15
             599            1180     6.02440E-15     6.13604E-15
             598            1180     6.02440E-15     6.13604E-15
             616            1181     7.89139E-15     8.13888E-15
             615            1181     7.89139E-15     8.13888E-15
             600            1181     7.89139E-15     8.13888E-15
             599            1181     7.89139E-15     8.13888E-15
             616            1182     12.2894E-15     13.8645E-15
             601            1182     12.2894E-15     13.8645E-15
             617            1182     12.2894E-15     13.8645E-15
             600            1182     12.2894E-15     13.8645E-15
             601            1183     16.1991E-15     16.0420E-15
             602            1183     16.1991E-15     16.0420E-15
             618            1183     16.1991E-15     16.0420E-15
             617            1183     16.1991E-15     16.0420E-15
             602            1184     14.2668E-15     13.1808E-15
             603            1184     14.2668E-15     13.1808E-15
             619            1184     14.2668E-15     13.1808E-15
             618            1184     14.2668E-15     13.1808E-15
             604            1185     14.8282E-15     14.9981E-15
             619            1185     14.8282E-15     14.9981E-15
             620            1185     14.8282E-15     14.9981E-15
             603            1185     14.8282E-15     14.9981E-15
             621            1186     15.7171E-15     15.0377E-15
             605            1186     15.7171E-15     15.0377E-15
             620            1186     15.7171E-15     15.0377E-15
             604            1186     15.7171E-15     15.0377E-15
             606            1187     12.0862E-15     10.1901E-15
             622            1187     12.0862E-15     10.1901E-15
             621            1187     12.0862E-15     10.1901E-15
             605            1187     12.0862E-15     10.1901E-15
             607            1188     15.2437E-15     12.9608E-15
             606            1188     15.2437E-15     12.9608E-15
             622            1188     15.2437E-15     12.9608E-15
             623            1188     15.2437E-15     12.9608E-15
             607            1189     17.8961E-15     16.3763E-15
             623            1189     17.8961E-15     16.3763E-15
             608            1189     17.8961E-15     16.3763E-15
             624            1189     17.8961E-15     16.3763E-15
             625            1190     13.9685E-15     15.4898E-15
             626            1190     13.9685E-15     15.4898E-15
             610            1190     13.9685E-15     15.4898E-15
             609            1190     13.9685E-15     15.4898E-15
             611            1191     15.7606E-15     13.4403E-15
             626            1191     15.7606E-15     13.4403E-15
             627            1191     15.7606E-15     13.4403E-15
             610            1191     15.7606E-15     13.4403E-15
             611            1192     16.8957E-15     14.7192E-15
             627            1192     16.8957E-15     14.7192E-15
             628            1192     16.8957E-15     14.7192E-15
             612            1192     16.8957E-15     14.7192E-15
             628            1193     9.99249E-15     10.7733E-15
             629            1193     9.99249E-15     10.7733E-15
             613            1193     9.99249E-15     10.7733E-15
             612            1193     9.99249E-15     10.7733E-15
             613            1194     5.39986E-15     7.59744E-15
             629            1194     5.39986E-15     7.59744E-15
             630            1194     5.39986E-15     7.59744E-15
             614            1194     5.39986E-15     7.59744E-15
             614            1195     6.51436E-15     8.14707E-15
             615            1195     6.51436E-15     8.14707E-15
             630            1195     6.51436E-15     8.14707E-15
             631            1195     6.51436E-15     8.14707E-15
             632            1196     7.53151E-15     8.76235E-15
             616            1196     7.53151E-15     8.76235E-15
             615            1196     7.53151E-15     8.76235E-15
             631            1196     7.53151E-15     8.76235E-15
             633            1197     8.37467E-15     10.0164E-15
             616            1197     8.37467E-15     10.0164E-15
             617            1197     8.37467E-15     10.0164E-15
             632            1197     8.37467E-15     10.0164E-15
             633            1198     12.1024E-15     13.1765E-15
             618            1198     12.1024E-15     13.1765E-15
             617            1198     12.1024E-15     13.1765E-15
             634            1198     12.1024E-15     13.1765E-15
             618            1199     10.9936E-15     10.7472E-15
             634            1199     10.9936E-15     10.7472E-15
             619            1199     10.9936E-15     10.7472E-15
             635            1199     10.9936E-15     10.7472E-15
             619            1200     13.2353E-15     13.7285E-15
             620            1200     13.2353E-15     13.7285E-15
             636            1200     13.2353E-15     13.7285E-15
             635            1200     13.2353E-15     13.7285E-15
             637            1201     16.6090E-15     17.7771E-15
             621            1201     16.6090E-15     17.7771E-15
             620            1201     16.6090E-15     17.7771E-15
             636            1201     16.6090E-15     17.7771E-15
             638            1202     14.0118E-15     12.7595E-15
             637            1202     14.0118E-15     12.7595E-15
             622            1202     14.0118E-15     12.7595E-15
             621            1202     14.0118E-15     12.7595E-15
             639            1203     12.7559E-15     10.1325E-15
             622            1203     12.7559E-15     10.1325E-15
             638            1203     12.7559E-15     10.1325E-15
             623            1203     12.7559E-15     10.1325E-15
             624            1204     14.2918E-15     13.1739E-15
             623            1204     14.2918E-15     13.1739E-15
             639            1204     14.2918E-15     13.1739E-15
             640            1204     14.2918E-15     13.1739E-15
            1090            1511     55.2719E-03     52.5811E-03
            1091            1511     55.2719E-03     52.5811E-03
            1075            1511     55.2719E-03     52.5811E-03
            1074            1511     55.2719E-03     52.5811E-03
            1092            1512     70.1350E-03     56.4188E-03
            1091            1512     70.1350E-03     56.4188E-03
            1075            1512     70.1350E-03     56.4188E-03
            1076            1512     70.1350E-03     56.4188E-03
            1076            1513     80.0360E-03     68.2829E-03
            1092            1513     80.0360E-03     68.2829E-03
            1093            1513     80.0360E-03     68.2829E-03
            1077            1513     80.0360E-03     68.2829E-03
            1078            1514     84.7438E-03     74.2645E-03
            1094            1514     84.7438E-03     74.2645E-03
            1077            1514     84.7438E-03     74.2645E-03
            1093            1514     84.7438E-03     74.2645E-03
            1078            1515     84.8012E-03     75.3163E-03
            1094            1515     84.8012E-03     75.3163E-03
            1095            1515     84.8012E-03     75.3163E-03
            1079            1515     84.8012E-03     75.3163E-03
            1080            1516     83.0374E-03     74.2608E-03
            1096            1516     83.0374E-03     74.2608E-03
            1095            1516     83.0374E-03     74.2608E-03
            1079            1516     83.0374E-03     74.2608E-03
            1096            1517     79.8626E-03     71.7423E-03
            1081            1517     79.8626E-03     71.7423E-03
            1097            1517     79.8626E-03     71.7423E-03
            1080            1517     79.8626E-03     71.7423E-03
            1098            1518     76.1734E-03     68.6676E-03
            1082            1518     76.1734E-03     68.6676E-03
            1081            1518     76.1734E-03     68.6676E-03
            1097            1518     76.1734E-03     68.6676E-03
            1098            1519     72.2488E-03     65.4431E-03
            1099            1519     72.2488E-03     65.4431E-03
            1083            1519     72.2488E-03     65.4431E-03
            1082            1519     72.2488E-03     65.4431E-03
            1084            1520     68.3692E-03     62.2816E-03
            1083            1520     68.3692E-03     62.2816E-03
            1099            1520     68.3692E-03     62.2816E-03
            1100            1520     68.3692E-03     62.2816E-03
            1084            1521     64.6333E-03     59.3871E-03
            1085            1521     64.6333E-03     59.3871E-03
            1101            1521     64.6333E-03     59.3871E-03
            1100            1521     64.6333E-03     59.3871E-03
            1101            1522     61.2135E-03     57.0145E-03
            1086            1522     61.2135E-03     57.0145E-03
            1102            1522     61.2135E-03     57.0145E-03
            1085            1522     61.2135E-03     57.0145E-03
            1086            1523     58.0649E-03     55.0041E-03
            1103            1523     58.0649E-03     55.0041E-03
            1087            1523     58.0649E-03     55.0041E-03
            1102            1523     58.0649E-03     55.0041E-03
            1087            1524     55.1719E-03     54.3987E-03
            1104            1524     55.1719E-03     54.3987E-03
            1103            1524     55.1719E-03     54.3987E-03
            1088            1524     55.1719E-03     54.3987E-03
            1089            1525     50.5048E-03     56.1664E-03
            1105            1525     50.5048E-03     56.1664E-03
            1104            1525     50.5048E-03     56.1664E-03
            1088            1525     50.5048E-03     56.1664E-03
            1091            1526     100.310E-03     96.3285E-03
            1107            1526     100.310E-03     96.3285E-03
            1106            1526     100.310E-03     96.3285E-03
            1090            1526     100.310E-03     96.3285E-03
            1091            1527     127.307E-03     109.078E-03
            1092            1527     127.307E-03     109.078E-03
            1108            1527     127.307E-03     109.078E-03
            1107            1527     127.307E-03     109.078E-03
            1092            1528     151.466E-03     133.012E-03
            1108            1528     151.466E-03     133.012E-03
            1109            1528     151.466E-03     133.012E-03
            1093            1528     151.466E-03     133.012E-03
            1110            1529     158.180E-03     141.270E-03
            1093            1529     158.180E-03     141.270E-03
            1109            1529     158.180E-03     141.270E-03
            1094            1529     158.180E-03     141.270E-03
            1110            1530     157.470E-03     141.689E-03
            1111            1530     157.470E-03     141.689E-03
            1095            1530     157.470E-03     141.689E-03
            1094            1530     157.470E-03     141.689E-03
            1111            1531     152.571E-03     137.725E-03
            1112            1531     152.571E-03     137.725E-03
            1095            1531     152.571E-03     137.725E-03
            1096            1531     152.571E-03     137.725E-03
            1096            1532     145.810E-03     132.018E-03
            1097            1532     145.810E-03     132.018E-03
            1113            1532     145.810E-03     132.018E-03
            1112            1532     145.810E-03     132.018E-03
            1097            1533     138.456E-03     125.566E-03
            1114            1533     138.456E-03     125.566E-03
            1098            1533     138.456E-03     125.566E-03
            1113            1533     138.456E-03     125.566E-03
            1114            1534     130.939E-03     119.115E-03
            1098            1534     130.939E-03     119.115E-03
            1099            1534     130.939E-03     119.115E-03
            1115            1534     130.939E-03     119.115E-03
            1116            1535     123.716E-03     113.031E-03
            1115            1535     123.716E-03     113.031E-03
            1099            1535     123.716E-03     113.031E-03
            1100            1535     123.716E-03     113.031E-03
            1116            1536     116.879E-03     107.552E-03
            1117            1536     116.879E-03     107.552E-03
            1100            1536     116.879E-03     107.552E-03
            1101            1536     116.879E-03     107.552E-03
            1117            1537     110.634E-03     103.056E-03
            1101            1537     110.634E-03     103.056E-03
            1118            1537     110.634E-03     103.056E-03
            1102            1537     110.634E-03     103.056E-03
            1119            1538     104.836E-03     99.8081E-03
            1102            1538     104.836E-03     99.8081E-03
            1118            1538     104.836E-03     99.8081E-03
            1103            1538     104.836E-03     99.8081E-03
            1103            1539     98.9951E-03     99.2553E-03
            1120            1539     98.9951E-03     99.2553E-03
            1104            1539     98.9951E-03     99.2553E-03
            1119            1539     98.9951E-03     99.2553E-03
            1105            1540     94.1498E-03     102.075E-03
            1121            1540     94.1498E-03     102.075E-03
            1120            1540     94.1498E-03     102.075E-03
            1104            1540     94.1498E-03     102.075E-03
            1123            1541     131.530E-03     130.032E-03
            1122            1541     131.530E-03     130.032E-03
            1107            1541     131.530E-03     130.032E-03
            1106            1541     131.530E-03     130.032E-03
            1108            1542     142.251E-03     139.344E-03
            1123            1542     142.251E-03     139.344E-03
            1107            1542     142.251E-03     139.344E-03
            1124            1542     142.251E-03     139.344E-03
            1109            1543     163.925E-03     157.161E-03
            1124            1543     163.925E-03     157.161E-03
            1125            1543     163.925E-03     157.161E-03
            1108            1543     163.925E-03     157.161E-03
            1125            1544     166.522E-03     158.610E-03
            1110            1544     166.522E-03     158.610E-03
            1126            1544     166.522E-03     158.610E-03
            1109            1544     166.522E-03     158.610E-03
            1111            1545     161.315E-03     153.189E-03
            1126            1545     161.315E-03     153.189E-03
            1127            1545     161.315E-03     153.189E-03
            1110            1545     161.315E-03     153.189E-03
            1112            1546     152.508E-03     144.767E-03
            1128            1546     152.508E-03     144.767E-03
            1111            1546     152.508E-03     144.767E-03
            1127            1546     152.508E-03     144.767E-03
            1129            1547     143.221E-03     135.828E-03
            1112            1547     143.221E-03     135.828E-03
            1113            1547     143.221E-03     135.828E-03
            1128            1547     143.221E-03     135.828E-03
            1130            1548     133.928E-03     126.974E-03
            1113            1548     133.928E-03     126.974E-03
            1129            1548     133.928E-03     126.974E-03
            1114            1548     133.928E-03     126.974E-03
            1114            1549     125.181E-03     118.708E-03
            1130            1549     125.181E-03     118.708E-03
            1115            1549     125.181E-03     118.708E-03
            1131            1549     125.181E-03     118.708E-03
            1115            1550     117.042E-03     111.141E-03
            1116            1550     117.042E-03     111.141E-03
            1132            1550     117.042E-03     111.141E-03
            1131            1550     117.042E-03     111.141E-03
            1117            1551     109.618E-03     104.533E-03
            1132            1551     109.618E-03     104.533E-03
            1133            1551     109.618E-03     104.533E-03
            1116            1551     109.618E-03     104.533E-03
            1118            1552     103.072E-03     98.9309E-03
            1117            1552     103.072E-03     98.9309E-03
            1134            1552     103.072E-03     98.9309E-03
            1133            1552     103.072E-03     98.9309E-03
            1118            1553     97.0065E-03     95.1004E-03
            1119            1553     97.0065E-03     95.1004E-03
            1135            1553     97.0065E-03     95.1004E-03
            1134            1553     97.0065E-03     95.1004E-03
            1119            1554     92.4825E-03     93.3652E-03
            1120            1554     92.4825E-03     93.3652E-03
            1135            1554     92.4825E-03     93.3652E-03
            1136            1554     92.4825E-03     93.3652E-03
            1120            1555     92.3739E-03     90.2635E-03
            1136            1555     92.3739E-03     90.2635E-03
            1121            1555     92.3739E-03     90.2635E-03
            1137            1555     92.3739E-03     90.2635E-03
            1123            1556     176.115E-03     176.432E-03
            1122            1556     176.115E-03     176.432E-03
            1139            1556     176.115E-03     176.432E-03
            1138            1556     176.115E-03     176.432E-03
            1139            1557     164.564E-03     169.685E-03
            1140            1557     164.564E-03     169.685E-03
            1123            1557     164.564E-03     169.685E-03
            1124            1557     164.564E-03     169.685E-03
            1124            1558     171.763E-03     174.255E-03
            1125            1558     171.763E-03     174.255E-03
            1140            1558     171.763E-03     174.255E-03
            1141            1558     171.763E-03     174.255E-03
            1141            1559     169.996E-03     170.052E-03
            1142            1559     169.996E-03     170.052E-03
            1125            1559     169.996E-03     170.052E-03
            1126            1559     169.996E-03     170.052E-03
            1142            1560     160.474E-03     160.237E-03
            1143            1560     160.474E-03     160.237E-03
            1126            1560     160.474E-03     160.237E-03
            1127            1560     160.474E-03     160.237E-03
            1127            1561     150.010E-03     149.458E-03
            1143            1561     150.010E-03     149.458E-03
            1144            1561     150.010E-03     149.458E-03
            1128            1561     150.010E-03     149.458E-03
            1144            1562     139.045E-03     138.426E-03
            1129            1562     139.045E-03     138.426E-03
            1145            1562     139.045E-03     138.426E-03
            1128            1562     139.045E-03     138.426E-03
            1130            1563     128.716E-03     128.095E-03
            1146            1563     128.716E-03     128.095E-03
            1145            1563     128.716E-03     128.095E-03
            1129            1563     128.716E-03     128.095E-03
            1130            1564     119.093E-03     118.486E-03
            1147            1564     119.093E-03     118.486E-03
            1146            1564     119.093E-03     118.486E-03
            1131            1564     119.093E-03     118.486E-03
            1147            1565     110.293E-03     109.769E-03
            1132            1565     110.293E-03     109.769E-03
            1148            1565     110.293E-03     109.769E-03
            1131            1565     110.293E-03     109.769E-03
            1149            1566     102.432E-03     102.039E-03
            1132            1566     102.432E-03     102.039E-03
            1133            1566     102.432E-03     102.039E-03
            1148            1566     102.432E-03     102.039E-03
            1149            1567     95.5838E-03     95.4598E-03
            1134            1567     95.5838E-03     95.4598E-03
            1150            1567     95.5838E-03     95.4598E-03
            1133            1567     95.5838E-03     95.4598E-03
            1135            1568     90.3727E-03     90.0570E-03
            1150            1568     90.3727E-03     90.0570E-03
            1134            1568     90.3727E-03     90.0570E-03
            1151            1568     90.3727E-03     90.0570E-03
            1151            1569     87.7713E-03     84.6986E-03
            1152            1569     87.7713E-03     84.6986E-03
            1136            1569     87.7713E-03     84.6986E-03
            1135            1569     87.7713E-03     84.6986E-03
            1153            1570     86.8765E-03     79.4104E-03
            1152            1570     86.8765E-03     79.4104E-03
            1137            1570     86.8765E-03     79.4104E-03
            1136            1570     86.8765E-03     79.4104E-03
            1139            1571     220.211E-03     225.755E-03
            1154            1571     220.211E-03     225.755E-03
            1155            1571     220.211E-03     225.755E-03
            1138            1571     220.211E-03     225.755E-03
            1140            1572     193.062E-03     198.979E-03
            1155            1572     193.062E-03     198.979E-03
            1156            1572     193.062E-03     198.979E-03
            1139            1572     193.062E-03     198.979E-03
            1141            1573     178.329E-03     186.168E-03
            1156            1573     178.329E-03     186.168E-03
            1140            1573     178.329E-03     186.168E-03
            1157            1573     178.329E-03     186.168E-03
            1158            1574     166.501E-03     174.349E-03
            1142            1574     166.501E-03     174.349E-03
            1157            1574     166.501E-03     174.349E-03
            1141            1574     166.501E-03     174.349E-03
            1142            1575     155.527E-03     162.644E-03
            1158            1575     155.527E-03     162.644E-03
            1159            1575     155.527E-03     162.644E-03
            1143            1575     155.527E-03     162.644E-03
            1143            1576     143.964E-03     150.571E-03
            1144            1576     143.964E-03     150.571E-03
            1160            1576     143.964E-03     150.571E-03
            1159            1576     143.964E-03     150.571E-03
            1160            1577     132.784E-03     139.079E-03
            1161            1577     132.784E-03     139.079E-03
            1145            1577     132.784E-03     139.079E-03
            1144            1577     132.784E-03     139.079E-03
            1162            1578     122.172E-03     128.136E-03
            1161            1578     122.172E-03     128.136E-03
            1145            1578     122.172E-03     128.136E-03
            1146            1578     122.172E-03     128.136E-03
            1163            1579     112.233E-03     117.888E-03
            1162            1579     112.233E-03     117.888E-03
            1147            1579     112.233E-03     117.888E-03
            1146            1579     112.233E-03     117.888E-03
            1147            1580     103.146E-03     108.424E-03
            1148            1580     103.146E-03     108.424E-03
            1163            1580     103.146E-03     108.424E-03
            1164            1580     103.146E-03     108.424E-03
            1148            1581     95.0078E-03     99.7725E-03
            1165            1581     95.0078E-03     99.7725E-03
            1164            1581     95.0078E-03     99.7725E-03
            1149            1581     95.0078E-03     99.7725E-03
            1165            1582     88.0781E-03     92.2253E-03
            1149            1582     88.0781E-03     92.2253E-03
            1150            1582     88.0781E-03     92.2253E-03
            1166            1582     88.0781E-03     92.2253E-03
            1167            1583     83.2604E-03     85.2589E-03
            1151            1583     83.2604E-03     85.2589E-03
            1166            1583     83.2604E-03     85.2589E-03
            1150            1583     83.2604E-03     85.2589E-03
            1151            1584     80.9278E-03     78.0857E-03
            1152            1584     80.9278E-03     78.0857E-03
            1168            1584     80.9278E-03     78.0857E-03
            1167            1584     80.9278E-03     78.0857E-03
            1168            1585     80.0585E-03     72.6565E-03
            1153            1585     80.0585E-03     72.6565E-03
            1152            1585     80.0585E-03     72.6565E-03
            1169            1585     80.0585E-03     72.6565E-03
            1154            1586     267.442E-03     268.953E-03
            1170            1586     267.442E-03     268.953E-03
            1171            1586     267.442E-03     268.953E-03
            1155            1586     267.442E-03     268.953E-03
            1156            1587     212.202E-03     221.971E-03
            1155            1587     212.202E-03     221.971E-03
            1171            1587     212.202E-03     221.971E-03
            1172            1587     212.202E-03     221.971E-03
            1156            1588     177.170E-03     191.483E-03
            1172            1588     177.170E-03     191.483E-03
            1173            1588     177.170E-03     191.483E-03
            1157            1588     177.170E-03     191.483E-03
            1157            1589     159.603E-03     174.541E-03
            1173            1589     159.603E-03     174.541E-03
            1174            1589     159.603E-03     174.541E-03
            1158            1589     159.603E-03     174.541E-03
            1175            1590     147.078E-03     161.312E-03
            1158            1590     147.078E-03     161.312E-03
            1174            1590     147.078E-03     161.312E-03
            1159            1590     147.078E-03     161.312E-03
            1160            1591     135.540E-03     149.333E-03
            1175            1591     135.540E-03     149.333E-03
            1159            1591     135.540E-03     149.333E-03
            1176            1591     135.540E-03     149.333E-03
            1161            1592     124.797E-03     138.110E-03
            1160            1592     124.797E-03     138.110E-03
            1176            1592     124.797E-03     138.110E-03
            1177            1592     124.797E-03     138.110E-03
            1162            1593     114.397E-03     127.244E-03
            1177            1593     114.397E-03     127.244E-03
            1178            1593     114.397E-03     127.244E-03
            1161            1593     114.397E-03     127.244E-03
            1178            1594     104.576E-03     116.860E-03
            1179            1594     104.576E-03     116.860E-03
            1163            1594     104.576E-03     116.860E-03
            1162            1594     104.576E-03     116.860E-03
            1163            1595     95.4030E-03     106.912E-03
            1180            1595     95.4030E-03     106.912E-03
            1164            1595     95.4030E-03     106.912E-03
            1179            1595     95.4030E-03     106.912E-03
            1181            1596     87.1685E-03     97.6687E-03
            1164            1596     87.1685E-03     97.6687E-03
            1165            1596     87.1685E-03     97.6687E-03
            1180            1596     87.1685E-03     97.6687E-03
            1181            1597     80.2579E-03     89.0430E-03
            1166            1597     80.2579E-03     89.0430E-03
            1182            1597     80.2579E-03     89.0430E-03
            1165            1597     80.2579E-03     89.0430E-03
            1167            1598     74.7449E-03     81.3982E-03
            1183            1598     74.7449E-03     81.3982E-03
            1166            1598     74.7449E-03     81.3982E-03
            1182            1598     74.7449E-03     81.3982E-03
            1167            1599     71.6155E-03     74.8038E-03
            1168            1599     71.6155E-03     74.8038E-03
            1184            1599     71.6155E-03     74.8038E-03
            1183            1599     71.6155E-03     74.8038E-03
            1168            1600     71.9639E-03     67.9955E-03
            1169            1600     71.9639E-03     67.9955E-03
            1185            1600     71.9639E-03     67.9955E-03
            1184            1600     71.9639E-03     67.9955E-03
            1186            1601     292.869E-03     311.748E-03
            1170            1601     292.869E-03     311.748E-03
            1171            1601     292.869E-03     311.748E-03
            1187            1601     292.869E-03     311.748E-03
            1172            1602     209.550E-03     231.952E-03
            1171            1602     209.550E-03     231.952E-03
            1187            1602     209.550E-03     231.952E-03
            1188            1602     209.550E-03     231.952E-03
            1172            1603     171.393E-03     193.509E-03
            1173            1603     171.393E-03     193.509E-03
            1189            1603     171.393E-03     193.509E-03
            1188            1603     171.393E-03     193.509E-03
            1189            1604     151.815E-03     173.481E-03
            1174            1604     151.815E-03     173.481E-03
            1173            1604     151.815E-03     173.481E-03
            1190            1604     151.815E-03     173.481E-03
            1174            1605     137.671E-03     159.155E-03
            1191            1605     137.671E-03     159.155E-03
            1190            1605     137.671E-03     159.155E-03
            1175            1605     137.671E-03     159.155E-03
            1192            1606     126.581E-03     147.659E-03
            1191            1606     126.581E-03     147.659E-03
            1175            1606     126.581E-03     147.659E-03
            1176            1606     126.581E-03     147.659E-03
            1192            1607     116.030E-03     136.666E-03
            1193            1607     116.030E-03     136.666E-03
            1176            1607     116.030E-03     136.666E-03
            1177            1607     116.030E-03     136.666E-03
            1177            1608     105.977E-03     126.097E-03
            1194            1608     105.977E-03     126.097E-03
            1193            1608     105.977E-03     126.097E-03
            1178            1608     105.977E-03     126.097E-03
            1194            1609     96.2631E-03     115.609E-03
            1179            1609     96.2631E-03     115.609E-03
            1195            1609     96.2631E-03     115.609E-03
            1178            1609     96.2631E-03     115.609E-03
            1179            1610     87.1155E-03     105.447E-03
            1196            1610     87.1155E-03     105.447E-03
            1195            1610     87.1155E-03     105.447E-03
            1180            1610     87.1155E-03     105.447E-03
            1181            1611     78.8236E-03     95.6156E-03
            1196            1611     78.8236E-03     95.6156E-03
            1197            1611     78.8236E-03     95.6156E-03
            1180            1611     78.8236E-03     95.6156E-03
            1197            1612     71.7347E-03     86.3358E-03
            1182            1612     71.7347E-03     86.3358E-03
            1198            1612     71.7347E-03     86.3358E-03
            1181            1612     71.7347E-03     86.3358E-03
            1182            1613     66.0136E-03     77.9327E-03
            1183            1613     66.0136E-03     77.9327E-03
            1199            1613     66.0136E-03     77.9327E-03
            1198            1613     66.0136E-03     77.9327E-03
            1183            1614     61.7627E-03     71.2552E-03
            1184            1614     61.7627E-03     71.2552E-03
            1200            1614     61.7627E-03     71.2552E-03
            1199            1614     61.7627E-03     71.2552E-03
            1185            1615     59.7752E-03     66.6234E-03
            1184            1615     59.7752E-03     66.6234E-03
            1201            1615     59.7752E-03     66.6234E-03
            1200            1615     59.7752E-03     66.6234E-03
            1186            1616     313.315E-03     320.244E-03
            1202            1616     313.315E-03     320.244E-03
            1203            1616     313.315E-03     320.244E-03
            1187            1616     313.315E-03     320.244E-03
            1203            1617     285.642E-03     286.768E-03
            1204            1617     285.642E-03     286.768E-03
            1187            1617     285.642E-03     286.768E-03
            1188            1617     285.642E-03     286.768E-03
            1189            1618     268.512E-03     269.468E-03
            1188            1618     268.512E-03     269.468E-03
            1204            1618     268.512E-03     269.468E-03
            1205            1618     268.512E-03     269.468E-03
            1190            1619     251.619E-03     253.735E-03
            1206            1619     251.619E-03     253.735E-03
            1189            1619     251.619E-03     253.735E-03
            1205            1619     251.619E-03     253.735E-03
            1191            1620     235.264E-03     237.949E-03
            1207            1620     235.264E-03     237.949E-03
            1190            1620     235.264E-03     237.949E-03
            1206            1620     235.264E-03     237.949E-03
            1207            1621     218.485E-03     221.519E-03
            1191            1621     218.485E-03     221.519E-03
            1208            1621     218.485E-03     221.519E-03
            1192            1621     218.485E-03     221.519E-03
            1192            1622     201.401E-03     204.558E-03
            1208            1622     201.401E-03     204.558E-03
            1209            1622     201.401E-03     204.558E-03
            1193            1622     201.401E-03     204.558E-03
            1209            1623     184.310E-03     187.524E-03
            1210            1623     184.310E-03     187.524E-03
            1194            1623     184.310E-03     187.524E-03
            1193            1623     184.310E-03     187.524E-03
            1210            1624     167.296E-03     170.376E-03
            1195            1624     167.296E-03     170.376E-03
            1211            1624     167.296E-03     170.376E-03
            1194            1624     167.296E-03     170.376E-03
            1196            1625     150.797E-03     153.776E-03
            1212            1625     150.797E-03     153.776E-03
            1211            1625     150.797E-03     153.776E-03
            1195            1625     150.797E-03     153.776E-03
            1212            1626     135.042E-03     137.648E-03
            1213            1626     135.042E-03     137.648E-03
            1197            1626     135.042E-03     137.648E-03
            1196            1626     135.042E-03     137.648E-03
            1198            1627     120.605E-03     122.961E-03
            1213            1627     120.605E-03     122.961E-03
            1197            1627     120.605E-03     122.961E-03
            1214            1627     120.605E-03     122.961E-03
            1214            1628     107.849E-03     109.542E-03
            1215            1628     107.849E-03     109.542E-03
            1198            1628     107.849E-03     109.542E-03
            1199            1628     107.849E-03     109.542E-03
            1215            1629     97.1953E-03     100.038E-03
            1199            1629     97.1953E-03     100.038E-03
            1216            1629     97.1953E-03     100.038E-03
            1200            1629     97.1953E-03     100.038E-03
            1200            1630     85.6940E-03     96.8146E-03
            1216            1630     85.6940E-03     96.8146E-03
            1217            1630     85.6940E-03     96.8146E-03
            1201            1630     85.6940E-03     96.8146E-03
            1203            1631     355.205E-03     342.076E-03
            1218            1631     355.205E-03     342.076E-03
            1202            1631     355.205E-03     342.076E-03
            1219            1631     355.205E-03     342.076E-03
            1219            1632     379.466E-03     363.712E-03
            1203            1632     379.466E-03     363.712E-03
            1220            1632     379.466E-03     363.712E-03
            1204            1632     379.466E-03     363.712E-03
            1205            1633     377.380E-03     362.119E-03
            1204            1633     377.380E-03     362.119E-03
            1220            1633     377.380E-03     362.119E-03
            1221            1633     377.380E-03     362.119E-03
            1221            1634     361.335E-03     346.604E-03
            1222            1634     361.335E-03     346.604E-03
            1205            1634     361.335E-03     346.604E-03
            1206            1634     361.335E-03     346.604E-03
            1223            1635     339.032E-03     324.893E-03
            1222            1635     339.032E-03     324.893E-03
            1207            1635     339.032E-03     324.893E-03
            1206            1635     339.032E-03     324.893E-03
            1223            1636     314.067E-03     300.728E-03
            1208            1636     314.067E-03     300.728E-03
            1224            1636     314.067E-03     300.728E-03
            1207            1636     314.067E-03     300.728E-03
            1224            1637     288.674E-03     275.609E-03
            1209            1637     288.674E-03     275.609E-03
            1225            1637     288.674E-03     275.609E-03
            1208            1637     288.674E-03     275.609E-03
            1209            1638     262.983E-03     250.399E-03
            1225            1638     262.983E-03     250.399E-03
            1210            1638     262.983E-03     250.399E-03
            1226            1638     262.983E-03     250.399E-03
            1227            1639     237.671E-03     225.451E-03
            1226            1639     237.671E-03     225.451E-03
            1210            1639     237.671E-03     225.451E-03
            1211            1639     237.671E-03     225.451E-03
            1211            1640     212.833E-03     201.169E-03
            1212            1640     212.833E-03     201.169E-03
            1228            1640     212.833E-03     201.169E-03
            1227            1640     212.833E-03     201.169E-03
            1229            1641     188.888E-03     177.983E-03
            1228            1641     188.888E-03     177.983E-03
            1212            1641     188.888E-03     177.983E-03
            1213            1641     188.888E-03     177.983E-03
            1213            1642     166.369E-03     156.589E-03
            1230            1642     166.369E-03     156.589E-03
            1214            1642     166.369E-03     156.589E-03
            1229            1642     166.369E-03     156.589E-03
            1230            1643     145.607E-03     138.076E-03
            1214            1643     145.607E-03     138.076E-03
            1215            1643     145.607E-03     138.076E-03
            1231            1643     145.607E-03     138.076E-03
            1231            1644     127.076E-03     125.357E-03
            1232            1644     127.076E-03     125.357E-03
            1215            1644     127.076E-03     125.357E-03
            1216            1644     127.076E-03     125.357E-03
            1232            1645     112.837E-03     121.621E-03
            1233            1645     112.837E-03     121.621E-03
            1216            1645     112.837E-03     121.621E-03
            1217            1645     112.837E-03     121.621E-03
            1219            1646     404.588E-03     409.636E-03
            1235            1646     404.588E-03     409.636E-03
            1218            1646     404.588E-03     409.636E-03
            1234            1646     404.588E-03     409.636E-03
            1236            1647     401.121E-03     405.899E-03
            1220            1647     401.121E-03     405.899E-03
            1219            1647     401.121E-03     405.899E-03
            1235            1647     401.121E-03     405.899E-03
            1220            1648     392.477E-03     391.837E-03
            1236            1648     392.477E-03     391.837E-03
            1237            1648     392.477E-03     391.837E-03
            1221            1648     392.477E-03     391.837E-03
            1221            1649     368.208E-03     365.936E-03
            1222            1649     368.208E-03     365.936E-03
            1237            1649     368.208E-03     365.936E-03
            1238            1649     368.208E-03     365.936E-03
            1223            1650     339.807E-03     337.360E-03
            1222            1650     339.807E-03     337.360E-03
            1239            1650     339.807E-03     337.360E-03
            1238            1650     339.807E-03     337.360E-03
            1240            1651     311.311E-03     308.616E-03
            1239            1651     311.311E-03     308.616E-03
            1223            1651     311.311E-03     308.616E-03
            1224            1651     311.311E-03     308.616E-03
            1225            1652     282.836E-03     280.197E-03
            1240            1652     282.836E-03     280.197E-03
            1241            1652     282.836E-03     280.197E-03
            1224            1652     282.836E-03     280.197E-03
            1241            1653     255.041E-03     252.377E-03
            1242            1653     255.041E-03     252.377E-03
            1225            1653     255.041E-03     252.377E-03
            1226            1653     255.041E-03     252.377E-03
            1226            1654     227.784E-03     225.205E-03
            1243            1654     227.784E-03     225.205E-03
            1242            1654     227.784E-03     225.205E-03
            1227            1654     227.784E-03     225.205E-03
            1228            1655     201.341E-03     198.745E-03
            1244            1655     201.341E-03     198.745E-03
            1227            1655     201.341E-03     198.745E-03
            1243            1655     201.341E-03     198.745E-03
            1245            1656     175.778E-03     173.384E-03
            1228            1656     175.778E-03     173.384E-03
            1244            1656     175.778E-03     173.384E-03
            1229            1656     175.778E-03     173.384E-03
            1246            1657     151.645E-03     149.607E-03
            1245            1657     151.645E-03     149.607E-03
            1229            1657     151.645E-03     149.607E-03
            1230            1657     151.645E-03     149.607E-03
            1247            1658     129.257E-03     128.761E-03
            1230            1658     129.257E-03     128.761E-03
            1231            1658     129.257E-03     128.761E-03
            1246            1658     129.257E-03     128.761E-03
            1231            1659     110.217E-03     113.424E-03
            1247            1659     110.217E-03     113.424E-03
            1248            1659     110.217E-03     113.424E-03
            1232            1659     110.217E-03     113.424E-03
            1249            1660     100.556E-03     101.164E-03
            1248            1660     100.556E-03     101.164E-03
            1233            1660     100.556E-03     101.164E-03
            1232            1660     100.556E-03     101.164E-03
            1235            1661     455.595E-03     467.480E-03
            1251            1661     455.595E-03     467.480E-03
            1234            1661     455.595E-03     467.480E-03
            1250            1661     455.595E-03     467.480E-03
            1236            1662     426.548E-03     438.433E-03
            1252            1662     426.548E-03     438.433E-03
            1235            1662     426.548E-03     438.433E-03
            1251            1662     426.548E-03     438.433E-03
            1236            1663     397.266E-03     408.232E-03
            1252            1663     397.266E-03     408.232E-03
            1253            1663     397.266E-03     408.232E-03
            1237            1663     397.266E-03     408.232E-03
            1254            1664     365.545E-03     375.435E-03
            1237            1664     365.545E-03     375.435E-03
            1253            1664     365.545E-03     375.435E-03
            1238            1664     365.545E-03     375.435E-03
            1255            1665     335.064E-03     343.909E-03
            1254            1665     335.064E-03     343.909E-03
            1238            1665     335.064E-03     343.909E-03
            1239            1665     335.064E-03     343.909E-03
            1256            1666     304.869E-03     313.083E-03
            1239            1666     304.869E-03     313.083E-03
            1240            1666     304.869E-03     313.083E-03
            1255            1666     304.869E-03     313.083E-03
            1240            1667     275.250E-03     283.236E-03
            1257            1667     275.250E-03     283.236E-03
            1256            1667     275.250E-03     283.236E-03
            1241            1667     275.250E-03     283.236E-03
            1258            1668     246.230E-03     254.046E-03
            1241            1668     246.230E-03     254.046E-03
            1257            1668     246.230E-03     254.046E-03
            1242            1668     246.230E-03     254.046E-03
            1258            1669     217.813E-03     225.457E-03
            1242            1669     217.813E-03     225.457E-03
            1259            1669     217.813E-03     225.457E-03
            1243            1669     217.813E-03     225.457E-03
            1243            1670     190.048E-03     197.526E-03
            1259            1670     190.048E-03     197.526E-03
            1260            1670     190.048E-03     197.526E-03
            1244            1670     190.048E-03     197.526E-03
            1244            1671     163.223E-03     170.399E-03
            1261            1671     163.223E-03     170.399E-03
            1245            1671     163.223E-03     170.399E-03
            1260            1671     163.223E-03     170.399E-03
            1245            1672     137.526E-03     144.581E-03
            1262            1672     137.526E-03     144.581E-03
            1246            1672     137.526E-03     144.581E-03
            1261            1672     137.526E-03     144.581E-03
            1262            1673     114.011E-03     121.105E-03
            1263            1673     114.011E-03     121.105E-03
            1247            1673     114.011E-03     121.105E-03
            1246            1673     114.011E-03     121.105E-03
            1247            1674     95.9099E-03     99.5665E-03
            1263            1674     95.9099E-03     99.5665E-03
            1264            1674     95.9099E-03     99.5665E-03
            1248            1674     95.9099E-03     99.5665E-03
            1264            1675     84.9588E-03     80.4588E-03
            1265            1675     84.9588E-03     80.4588E-03
            1248            1675     84.9588E-03     80.4588E-03
            1249            1675     84.9588E-03     80.4588E-03
            1266            1676     504.662E-03     510.983E-03
            1267            1676     504.662E-03     510.983E-03
            1251            1676     504.662E-03     510.983E-03
            1250            1676     504.662E-03     510.983E-03
            1268            1677     441.582E-03     457.961E-03
            1267            1677     441.582E-03     457.961E-03
            1252            1677     441.582E-03     457.961E-03
            1251            1677     441.582E-03     457.961E-03
            1269            1678     390.096E-03     411.041E-03
            1252            1678     390.096E-03     411.041E-03
            1253            1678     390.096E-03     411.041E-03
            1268            1678     390.096E-03     411.041E-03
            1269            1679     355.826E-03     376.150E-03
            1253            1679     355.826E-03     376.150E-03
            1254            1679     355.826E-03     376.150E-03
            1270            1679     355.826E-03     376.150E-03
            1254            1680     324.914E-03     344.208E-03
            1271            1680     324.914E-03     344.208E-03
            1255            1680     324.914E-03     344.208E-03
            1270            1680     324.914E-03     344.208E-03
            1256            1681     294.811E-03     313.832E-03
            1255            1681     294.811E-03     313.832E-03
            1271            1681     294.811E-03     313.832E-03
            1272            1681     294.811E-03     313.832E-03
            1256            1682     265.394E-03     284.121E-03
            1273            1682     265.394E-03     284.121E-03
            1257            1682     265.394E-03     284.121E-03
            1272            1682     265.394E-03     284.121E-03
            1274            1683     236.107E-03     254.752E-03
            1258            1683     236.107E-03     254.752E-03
            1273            1683     236.107E-03     254.752E-03
            1257            1683     236.107E-03     254.752E-03
            1258            1684     207.225E-03     225.698E-03
            1274            1684     207.225E-03     225.698E-03
            1275            1684     207.225E-03     225.698E-03
            1259            1684     207.225E-03     225.698E-03
            1260            1685     178.741E-03     196.965E-03
            1275            1685     178.741E-03     196.965E-03
            1276            1685     178.741E-03     196.965E-03
            1259            1685     178.741E-03     196.965E-03
            1260            1686     150.884E-03     168.721E-03
            1261            1686     150.884E-03     168.721E-03
            1276            1686     150.884E-03     168.721E-03
            1277            1686     150.884E-03     168.721E-03
            1261            1687     124.093E-03     141.248E-03
            1262            1687     124.093E-03     141.248E-03
            1278            1687     124.093E-03     141.248E-03
            1277            1687     124.093E-03     141.248E-03
            1279            1688     99.4381E-03     114.859E-03
            1262            1688     99.4381E-03     114.859E-03
            1263            1688     99.4381E-03     114.859E-03
            1278            1688     99.4381E-03     114.859E-03
            1263            1689     79.2343E-03     89.0691E-03
            1280            1689     79.2343E-03     89.0691E-03
            1264            1689     79.2343E-03     89.0691E-03
            1279            1689     79.2343E-03     89.0691E-03
            1264            1690     67.1345E-03     67.0087E-03
            1281            1690     67.1345E-03     67.0087E-03
            1265            1690     67.1345E-03     67.0087E-03
            1280            1690     67.1345E-03     67.0087E-03
            1283            1691     525.540E-03     546.920E-03
            1267            1691     525.540E-03     546.920E-03
            1266            1691     525.540E-03     546.920E-03
            1282            1691     525.540E-03     546.920E-03
            1283            1692     430.366E-03     457.990E-03
            1284            1692     430.366E-03     457.990E-03
            1268            1692     430.366E-03     457.990E-03
            1267            1692     430.366E-03     457.990E-03
            1284            1693     378.026E-03     406.417E-03
            1268            1693     378.026E-03     406.417E-03
            1285            1693     378.026E-03     406.417E-03
            1269            1693     378.026E-03     406.417E-03
            1269            1694     342.719E-03     371.669E-03
            1285            1694     342.719E-03     371.669E-03
            1286            1694     342.719E-03     371.669E-03
            1270            1694     342.719E-03     371.669E-03
            1286            1695     311.647E-03     341.102E-03
            1271            1695     311.647E-03     341.102E-03
            1270            1695     311.647E-03     341.102E-03
            1287            1695     311.647E-03     341.102E-03
            1272            1696     282.670E-03     312.282E-03
            1288            1696     282.670E-03     312.282E-03
            1271            1696     282.670E-03     312.282E-03
            1287            1696     282.670E-03     312.282E-03
            1288            1697     253.740E-03     283.497E-03
            1289            1697     253.740E-03     283.497E-03
            1272            1697     253.740E-03     283.497E-03
            1273            1697     253.740E-03     283.497E-03
            1274            1698     224.992E-03     254.755E-03
            1289            1698     224.992E-03     254.755E-03
            1290            1698     224.992E-03     254.755E-03
            1273            1698     224.992E-03     254.755E-03
            1290            1699     196.116E-03     225.861E-03
            1275            1699     196.116E-03     225.861E-03
            1274            1699     196.116E-03     225.861E-03
            1291            1699     196.116E-03     225.861E-03
            1275            1700     167.416E-03     197.032E-03
            1291            1700     167.416E-03     197.032E-03
            1292            1700     167.416E-03     197.032E-03
            1276            1700     167.416E-03     197.032E-03
            1277            1701     138.946E-03     168.272E-03
            1293            1701     138.946E-03     168.272E-03
            1292            1701     138.946E-03     168.272E-03
            1276            1701     138.946E-03     168.272E-03
            1294            1702     111.208E-03     139.743E-03
            1293            1702     111.208E-03     139.743E-03
            1277            1702     111.208E-03     139.743E-03
            1278            1702     111.208E-03     139.743E-03
            1278            1703     85.0363E-03     111.161E-03
            1279            1703     85.0363E-03     111.161E-03
            1294            1703     85.0363E-03     111.161E-03
            1295            1703     85.0363E-03     111.161E-03
            1296            1704     61.6325E-03     83.6977E-03
            1280            1704     61.6325E-03     83.6977E-03
            1295            1704     61.6325E-03     83.6977E-03
            1279            1704     61.6325E-03     83.6977E-03
            1281            1705     46.4370E-03     57.6142E-03
            1296            1705     46.4370E-03     57.6142E-03
            1280            1705     46.4370E-03     57.6142E-03
            1297            1705     46.4370E-03     57.6142E-03
            1283            1706     542.091E-03     551.735E-03
            1282            1706     542.091E-03     551.735E-03
            1298            1706     542.091E-03     551.735E-03
            1299            1706     542.091E-03     551.735E-03
            1283            1707     500.399E-03     503.059E-03
            1284            1707     500.399E-03     503.059E-03
            1300            1707     500.399E-03     503.059E-03
            1299            1707     500.399E-03     503.059E-03
            1301            1708     469.953E-03     474.819E-03
            1284            1708     469.953E-03     474.819E-03
            1285            1708     469.953E-03     474.819E-03
            1300            1708     469.953E-03     474.819E-03
            1302            1709     439.309E-03     447.164E-03
            1286            1709     439.309E-03     447.164E-03
            1285            1709     439.309E-03     447.164E-03
            1301            1709     439.309E-03     447.164E-03
            1286            1710     408.358E-03     417.973E-03
            1287            1710     408.358E-03     417.973E-03
            1303            1710     408.358E-03     417.973E-03
            1302            1710     408.358E-03     417.973E-03
            1303            1711     376.136E-03     387.199E-03
            1287            1711     376.136E-03     387.199E-03
            1304            1711     376.136E-03     387.199E-03
            1288            1711     376.136E-03     387.199E-03
            1305            1712     343.168E-03     354.765E-03
            1304            1712     343.168E-03     354.765E-03
            1289            1712     343.168E-03     354.765E-03
            1288            1712     343.168E-03     354.765E-03
            1306            1713     309.445E-03     321.570E-03
            1305            1713     309.445E-03     321.570E-03
            1290            1713     309.445E-03     321.570E-03
            1289            1713     309.445E-03     321.570E-03
            1290            1714     275.632E-03     288.020E-03
            1291            1714     275.632E-03     288.020E-03
            1307            1714     275.632E-03     288.020E-03
            1306            1714     275.632E-03     288.020E-03
            1291            1715     241.804E-03     254.531E-03
            1308            1715     241.804E-03     254.531E-03
            1307            1715     241.804E-03     254.531E-03
            1292            1715     241.804E-03     254.531E-03
            1309            1716     208.712E-03     221.586E-03
            1293            1716     208.712E-03     221.586E-03
            1292            1716     208.712E-03     221.586E-03
            1308            1716     208.712E-03     221.586E-03
            1309            1717     176.709E-03     189.622E-03
            1310            1717     176.709E-03     189.622E-03
            1294            1717     176.709E-03     189.622E-03
            1293            1717     176.709E-03     189.622E-03
            1295            1718     146.944E-03     159.326E-03
            1294            1718     146.944E-03     159.326E-03
            1310            1718     146.944E-03     159.326E-03
            1311            1718     146.944E-03     159.326E-03
            1312            1719     120.715E-03     132.798E-03
            1311            1719     120.715E-03     132.798E-03
            1295            1719     120.715E-03     132.798E-03
            1296            1719     120.715E-03     132.798E-03
            1312            1720     97.1266E-03     115.036E-03
            1296            1720     97.1266E-03     115.036E-03
            1313            1720     97.1266E-03     115.036E-03
            1297            1720     97.1266E-03     115.036E-03
            1314            1721     591.574E-03     578.678E-03
            1315            1721     591.574E-03     578.678E-03
            1299            1721     591.574E-03     578.678E-03
            1298            1721     591.574E-03     578.678E-03
            1316            1722     597.986E-03     585.986E-03
            1315            1722     597.986E-03     585.986E-03
            1300            1722     597.986E-03     585.986E-03
            1299            1722     597.986E-03     585.986E-03
            1317            1723     583.327E-03     570.751E-03
            1300            1723     583.327E-03     570.751E-03
            1301            1723     583.327E-03     570.751E-03
            1316            1723     583.327E-03     570.751E-03
            1317            1724     554.197E-03     543.316E-03
            1318            1724     554.197E-03     543.316E-03
            1301            1724     554.197E-03     543.316E-03
            1302            1724     554.197E-03     543.316E-03
            1318            1725     518.738E-03     509.143E-03
            1302            1725     518.738E-03     509.143E-03
            1303            1725     518.738E-03     509.143E-03
            1319            1725     518.738E-03     509.143E-03
            1320            1726     479.674E-03     470.947E-03
            1304            1726     479.674E-03     470.947E-03
            1303            1726     479.674E-03     470.947E-03
            1319            1726     479.674E-03     470.947E-03
            1304            1727     438.986E-03     431.131E-03
            1320            1727     438.986E-03     431.131E-03
            1321            1727     438.986E-03     431.131E-03
            1305            1727     438.986E-03     431.131E-03
            1306            1728     397.941E-03     390.439E-03
            1321            1728     397.941E-03     390.439E-03
            1322            1728     397.941E-03     390.439E-03
            1305            1728     397.941E-03     390.439E-03
            1307            1729     356.828E-03     349.780E-03
            1323            1729     356.828E-03     349.780E-03
            1306            1729     356.828E-03     349.780E-03
            1322            1729     356.828E-03     349.780E-03
            1308            1730     316.390E-03     309.621E-03
            1323            1730     316.390E-03     309.621E-03
            1324            1730     316.390E-03     309.621E-03
            1307            1730     316.390E-03     309.621E-03
            1324            1731     276.946E-03     270.649E-03
            1325            1731     276.946E-03     270.649E-03
            1308            1731     276.946E-03     270.649E-03
            1309            1731     276.946E-03     270.649E-03
            1325            1732     239.498E-03     233.864E-03
            1326            1732     239.498E-03     233.864E-03
            1310            1732     239.498E-03     233.864E-03
            1309            1732     239.498E-03     233.864E-03
            1327            1733     204.688E-03     200.879E-03
            1310            1733     204.688E-03     200.879E-03
            1326            1733     204.688E-03     200.879E-03
            1311            1733     204.688E-03     200.879E-03
            1312            1734     173.609E-03     176.216E-03
            1327            1734     173.609E-03     176.216E-03
            1328            1734     173.609E-03     176.216E-03
            1311            1734     173.609E-03     176.216E-03
            1312            1735     149.645E-03     166.028E-03
            1313            1735     149.645E-03     166.028E-03
            1328            1735     149.645E-03     166.028E-03
            1329            1735     149.645E-03     166.028E-03
            1315            1736     647.155E-03     656.367E-03
            1331            1736     647.155E-03     656.367E-03
            1314            1736     647.155E-03     656.367E-03
            1330            1736     647.155E-03     656.367E-03
            1331            1737     632.367E-03     640.437E-03
            1316            1737     632.367E-03     640.437E-03
            1332            1737     632.367E-03     640.437E-03
            1315            1737     632.367E-03     640.437E-03
            1332            1738     608.768E-03     613.482E-03
            1316            1738     608.768E-03     613.482E-03
            1317            1738     608.768E-03     613.482E-03
            1333            1738     608.768E-03     613.482E-03
            1317            1739     572.234E-03     574.158E-03
            1334            1739     572.234E-03     574.158E-03
            1333            1739     572.234E-03     574.158E-03
            1318            1739     572.234E-03     574.158E-03
            1319            1740     529.337E-03     530.114E-03
            1335            1740     529.337E-03     530.114E-03
            1318            1740     529.337E-03     530.114E-03
            1334            1740     529.337E-03     530.114E-03
            1320            1741     484.121E-03     484.760E-03
            1335            1741     484.121E-03     484.760E-03
            1336            1741     484.121E-03     484.760E-03
            1319            1741     484.121E-03     484.760E-03
            1321            1742     438.901E-03     439.291E-03
            1336            1742     438.901E-03     439.291E-03
            1337            1742     438.901E-03     439.291E-03
            1320            1742     438.901E-03     439.291E-03
            1322            1743     393.796E-03     394.221E-03
            1338            1743     393.796E-03     394.221E-03
            1321            1743     393.796E-03     394.221E-03
            1337            1743     393.796E-03     394.221E-03
            1323            1744     349.400E-03     349.761E-03
            1339            1744     349.400E-03     349.761E-03
            1338            1744     349.400E-03     349.761E-03
            1322            1744     349.400E-03     349.761E-03
            1323            1745     305.787E-03     306.137E-03
            1339            1745     305.787E-03     306.137E-03
            1324            1745     305.787E-03     306.137E-03
            1340            1745     305.787E-03     306.137E-03
            1340            1746     263.258E-03     263.785E-03
            1324            1746     263.258E-03     263.785E-03
            1325            1746     263.258E-03     263.785E-03
            1341            1746     263.258E-03     263.785E-03
            1325            1747     222.290E-03     223.561E-03
            1326            1747     222.290E-03     223.561E-03
            1342            1747     222.290E-03     223.561E-03
            1341            1747     222.290E-03     223.561E-03
            1342            1748     183.432E-03     187.324E-03
            1326            1748     183.432E-03     187.324E-03
            1343            1748     183.432E-03     187.324E-03
            1327            1748     183.432E-03     187.324E-03
            1327            1749     149.041E-03     159.319E-03
            1344            1749     149.041E-03     159.319E-03
            1328            1749     149.041E-03     159.319E-03
            1343            1749     149.041E-03     159.319E-03
            1345            1750     129.031E-03     137.310E-03
            1328            1750     129.031E-03     137.310E-03
            1329            1750     129.031E-03     137.310E-03
            1344            1750     129.031E-03     137.310E-03
            1330            1751     703.285E-03     715.935E-03
            1331            1751     703.285E-03     715.935E-03
            1346            1751     703.285E-03     715.935E-03
            1347            1751     703.285E-03     715.935E-03
            1348            1752     664.467E-03     683.118E-03
            1347            1752     664.467E-03     683.118E-03
            1331            1752     664.467E-03     683.118E-03
            1332            1752     664.467E-03     683.118E-03
            1348            1753     626.168E-03     641.796E-03
            1333            1753     626.168E-03     641.796E-03
            1332            1753     626.168E-03     641.796E-03
            1349            1753     626.168E-03     641.796E-03
            1333            1754     580.485E-03     593.137E-03
            1349            1754     580.485E-03     593.137E-03
            1334            1754     580.485E-03     593.137E-03
            1350            1754     580.485E-03     593.137E-03
            1335            1755     531.590E-03     542.661E-03
            1351            1755     531.590E-03     542.661E-03
            1334            1755     531.590E-03     542.661E-03
            1350            1755     531.590E-03     542.661E-03
            1352            1756     483.441E-03     493.174E-03
            1335            1756     483.441E-03     493.174E-03
            1351            1756     483.441E-03     493.174E-03
            1336            1756     483.441E-03     493.174E-03
            1337            1757     435.396E-03     444.461E-03
            1353            1757     435.396E-03     444.461E-03
            1352            1757     435.396E-03     444.461E-03
            1336            1757     435.396E-03     444.461E-03
            1353            1758     388.142E-03     396.788E-03
            1337            1758     388.142E-03     396.788E-03
            1354            1758     388.142E-03     396.788E-03
            1338            1758     388.142E-03     396.788E-03
            1354            1759     341.563E-03     349.928E-03
            1339            1759     341.563E-03     349.928E-03
            1338            1759     341.563E-03     349.928E-03
            1355            1759     341.563E-03     349.928E-03
            1355            1760     295.730E-03     303.941E-03
            1356            1760     295.730E-03     303.941E-03
            1339            1760     295.730E-03     303.941E-03
            1340            1760     295.730E-03     303.941E-03
            1340            1761     250.833E-03     259.078E-03
            1356            1761     250.833E-03     259.078E-03
            1357            1761     250.833E-03     259.078E-03
            1341            1761     250.833E-03     259.078E-03
            1342            1762     207.067E-03     215.830E-03
            1358            1762     207.067E-03     215.830E-03
            1341            1762     207.067E-03     215.830E-03
            1357            1762     207.067E-03     215.830E-03
            1358            1763     165.205E-03     176.103E-03
            1359            1763     165.205E-03     176.103E-03
            1343            1763     165.205E-03     176.103E-03
            1342            1763     165.205E-03     176.103E-03
            1360            1764     129.645E-03     139.877E-03
            1359            1764     129.645E-03     139.877E-03
            1343            1764     129.645E-03     139.877E-03
            1344            1764     129.645E-03     139.877E-03
            1361            1765     105.770E-03     107.515E-03
            1345            1765     105.770E-03     107.515E-03
            1360            1765     105.770E-03     107.515E-03
            1344            1765     105.770E-03     107.515E-03
            1346            1766     750.245E-03     768.312E-03
            1347            1766     750.245E-03     768.312E-03
            1362            1766     750.245E-03     768.312E-03
            1363            1766     750.245E-03     768.312E-03
            1348            1767     693.492E-03     712.991E-03
            1363            1767     693.492E-03     712.991E-03
            1364            1767     693.492E-03     712.991E-03
            1347            1767     693.492E-03     712.991E-03
            1348            1768     633.091E-03     654.524E-03
            1349            1768     633.091E-03     654.524E-03
            1364            1768     633.091E-03     654.524E-03
            1365            1768     633.091E-03     654.524E-03
            1349            1769     576.541E-03     597.940E-03
            1365            1769     576.541E-03     597.940E-03
            1350            1769     576.541E-03     597.940E-03
            1366            1769     576.541E-03     597.940E-03
            1351            1770     525.832E-03     545.425E-03
            1367            1770     525.832E-03     545.425E-03
            1366            1770     525.832E-03     545.425E-03
            1350            1770     525.832E-03     545.425E-03
            1352            1771     476.255E-03     494.483E-03
            1367            1771     476.255E-03     494.483E-03
            1368            1771     476.255E-03     494.483E-03
            1351            1771     476.255E-03     494.483E-03
            1352            1772     427.727E-03     445.248E-03
            1369            1772     427.727E-03     445.248E-03
            1353            1772     427.727E-03     445.248E-03
            1368            1772     427.727E-03     445.248E-03
            1353            1773     379.826E-03     396.831E-03
            1354            1773     379.826E-03     396.831E-03
            1369            1773     379.826E-03     396.831E-03
            1370            1773     379.826E-03     396.831E-03
            1370            1774     332.385E-03     349.131E-03
            1354            1774     332.385E-03     349.131E-03
            1371            1774     332.385E-03     349.131E-03
            1355            1774     332.385E-03     349.131E-03
            1355            1775     285.498E-03     302.031E-03
            1356            1775     285.498E-03     302.031E-03
            1371            1775     285.498E-03     302.031E-03
            1372            1775     285.498E-03     302.031E-03
            1356            1776     239.145E-03     255.572E-03
            1357            1776     239.145E-03     255.572E-03
            1372            1776     239.145E-03     255.572E-03
            1373            1776     239.145E-03     255.572E-03
            1357            1777     193.602E-03     210.212E-03
            1358            1777     193.602E-03     210.212E-03
            1373            1777     193.602E-03     210.212E-03
            1374            1777     193.602E-03     210.212E-03
            1375            1778     150.019E-03     166.233E-03
            1358            1778     150.019E-03     166.233E-03
            1359            1778     150.019E-03     166.233E-03
            1374            1778     150.019E-03     166.233E-03
            1375            1779     110.620E-03     123.613E-03
            1360            1779     110.620E-03     123.613E-03
            1359            1779     110.620E-03     123.613E-03
            1376            1779     110.620E-03     123.613E-03
            1376            1780     81.9030E-03     86.9555E-03
            1377            1780     81.9030E-03     86.9555E-03
            1360            1780     81.9030E-03     86.9555E-03
            1361            1780     81.9030E-03     86.9555E-03
            1379            1781     795.345E-03     805.127E-03
            1362            1781     795.345E-03     805.127E-03
            1378            1781     795.345E-03     805.127E-03
            1363            1781     795.345E-03     805.127E-03
            1363            1782     703.607E-03     724.757E-03
            1380            1782     703.607E-03     724.757E-03
            1364            1782     703.607E-03     724.757E-03
            1379            1782     703.607E-03     724.757E-03
            1381            1783     622.764E-03     650.021E-03
            1380            1783     622.764E-03     650.021E-03
            1364            1783     622.764E-03     650.021E-03
            1365            1783     622.764E-03     650.021E-03
            1382            1784     564.403E-03     591.706E-03
            1381            1784     564.403E-03     591.706E-03
            1365            1784     564.403E-03     591.706E-03
            1366            1784     564.403E-03     591.706E-03
            1383            1785     512.965E-03     539.349E-03
            1366            1785     512.965E-03     539.349E-03
            1367            1785     512.965E-03     539.349E-03
            1382            1785     512.965E-03     539.349E-03
            1383            1786     464.075E-03     490.089E-03
            1384            1786     464.075E-03     490.089E-03
            1367            1786     464.075E-03     490.089E-03
            1368            1786     464.075E-03     490.089E-03
            1368            1787     416.446E-03     442.026E-03
            1384            1787     416.446E-03     442.026E-03
            1369            1787     416.446E-03     442.026E-03
            1385            1787     416.446E-03     442.026E-03
            1369            1788     369.044E-03     394.534E-03
            1386            1788     369.044E-03     394.534E-03
            1385            1788     369.044E-03     394.534E-03
            1370            1788     369.044E-03     394.534E-03
            1370            1789     321.923E-03     347.286E-03
            1387            1789     321.923E-03     347.286E-03
            1371            1789     321.923E-03     347.286E-03
            1386            1789     321.923E-03     347.286E-03
            1371            1790     274.911E-03     300.149E-03
            1387            1790     274.911E-03     300.149E-03
            1372            1790     274.911E-03     300.149E-03
            1388            1790     274.911E-03     300.149E-03
            1373            1791     228.158E-03     253.202E-03
            1372            1791     228.158E-03     253.202E-03
            1389            1791     228.158E-03     253.202E-03
            1388            1791     228.158E-03     253.202E-03
            1390            1792     181.859E-03     206.509E-03
            1374            1792     181.859E-03     206.509E-03
            1389            1792     181.859E-03     206.509E-03
            1373            1792     181.859E-03     206.509E-03
            1391            1793     136.785E-03     159.590E-03
            1375            1793     136.785E-03     159.590E-03
            1390            1793     136.785E-03     159.590E-03
            1374            1793     136.785E-03     159.590E-03
            1375            1794     94.0590E-03     113.666E-03
            1391            1794     94.0590E-03     113.666E-03
            1376            1794     94.0590E-03     113.666E-03
            1392            1794     94.0590E-03     113.666E-03
            1376            1795     59.1963E-03     70.0423E-03
            1377            1795     59.1963E-03     70.0423E-03
            1393            1795     59.1963E-03     70.0423E-03
            1392            1795     59.1963E-03     70.0423E-03
            1394            1796     806.731E-03     829.118E-03
            1378            1796     806.731E-03     829.118E-03
            1395            1796     806.731E-03     829.118E-03
            1379            1796     806.731E-03     829.118E-03
            1395            1797     681.485E-03     711.004E-03
            1379            1797     681.485E-03     711.004E-03
            1396            1797     681.485E-03     711.004E-03
            1380            1797     681.485E-03     711.004E-03
            1380            1798     603.970E-03     633.954E-03
            1381            1798     603.970E-03     633.954E-03
            1396            1798     603.970E-03     633.954E-03
            1397            1798     603.970E-03     633.954E-03
            1382            1799     547.051E-03     578.212E-03
            1381            1799     547.051E-03     578.212E-03
            1397            1799     547.051E-03     578.212E-03
            1398            1799     547.051E-03     578.212E-03
            1398            1800     496.268E-03     528.708E-03
            1383            1800     496.268E-03     528.708E-03
            1399            1800     496.268E-03     528.708E-03
            1382            1800     496.268E-03     528.708E-03
            1399            1801     449.262E-03     482.446E-03
            1400            1801     449.262E-03     482.446E-03
            1383            1801     449.262E-03     482.446E-03
            1384            1801     449.262E-03     482.446E-03
            1384            1802     402.926E-03     436.686E-03
            1401            1802     402.926E-03     436.686E-03
            1400            1802     402.926E-03     436.686E-03
            1385            1802     402.926E-03     436.686E-03
            1386            1803     356.983E-03     391.048E-03
            1401            1803     356.983E-03     391.048E-03
            1402            1803     356.983E-03     391.048E-03
            1385            1803     356.983E-03     391.048E-03
            1403            1804     310.857E-03     345.097E-03
            1402            1804     310.857E-03     345.097E-03
            1386            1804     310.857E-03     345.097E-03
            1387            1804     310.857E-03     345.097E-03
            1388            1805     264.604E-03     298.906E-03
            1387            1805     264.604E-03     298.906E-03
            1404            1805     264.604E-03     298.906E-03
            1403            1805     264.604E-03     298.906E-03
            1404            1806     218.291E-03     252.423E-03
            1388            1806     218.291E-03     252.423E-03
            1405            1806     218.291E-03     252.423E-03
            1389            1806     218.291E-03     252.423E-03
            1406            1807     172.201E-03     205.458E-03
            1390            1807     172.201E-03     205.458E-03
            1405            1807     172.201E-03     205.458E-03
            1389            1807     172.201E-03     205.458E-03
            1407            1808     126.428E-03     158.150E-03
            1406            1808     126.428E-03     158.150E-03
            1391            1808     126.428E-03     158.150E-03
            1390            1808     126.428E-03     158.150E-03
            1407            1809     82.2959E-03     109.778E-03
            1392            1809     82.2959E-03     109.778E-03
            1391            1809     82.2959E-03     109.778E-03
            1408            1809     82.2959E-03     109.778E-03
            1409            1810     41.5213E-03     61.6949E-03
            1408            1810     41.5213E-03     61.6949E-03
            1392            1810     41.5213E-03     61.6949E-03
            1393            1810     41.5213E-03     61.6949E-03
            1411            1811     813.158E-03     826.587E-03
            1394            1811     813.158E-03     826.587E-03
            1410            1811     813.158E-03     826.587E-03
            1395            1811     813.158E-03     826.587E-03
            1411            1812     747.086E-03     749.713E-03
            1412            1812     747.086E-03     749.713E-03
            1396            1812     747.086E-03     749.713E-03
            1395            1812     747.086E-03     749.713E-03
            1396            1813     696.738E-03     701.959E-03
            1397            1813     696.738E-03     701.959E-03
            1412            1813     696.738E-03     701.959E-03
            1413            1813     696.738E-03     701.959E-03
            1398            1814     646.993E-03     656.313E-03
            1413            1814     646.993E-03     656.313E-03
            1414            1814     646.993E-03     656.313E-03
            1397            1814     646.993E-03     656.313E-03
            1414            1815     598.278E-03     610.222E-03
            1415            1815     598.278E-03     610.222E-03
            1399            1815     598.278E-03     610.222E-03
            1398            1815     598.278E-03     610.222E-03
            1399            1816     548.573E-03     562.862E-03
            1415            1816     548.573E-03     562.862E-03
            1416            1816     548.573E-03     562.862E-03
            1400            1816     548.573E-03     562.862E-03
            1416            1817     498.610E-03     513.838E-03
            1417            1817     498.610E-03     513.838E-03
            1401            1817     498.610E-03     513.838E-03
            1400            1817     498.610E-03     513.838E-03
            1401            1818     447.852E-03     463.926E-03
            1417            1818     447.852E-03     463.926E-03
            1418            1818     447.852E-03     463.926E-03
            1402            1818     447.852E-03     463.926E-03
            1403            1819     396.969E-03     413.419E-03
            1418            1819     396.969E-03     413.419E-03
            1419            1819     396.969E-03     413.419E-03
            1402            1819     396.969E-03     413.419E-03
            1420            1820     345.997E-03     362.764E-03
            1403            1820     345.997E-03     362.764E-03
            1419            1820     345.997E-03     362.764E-03
            1404            1820     345.997E-03     362.764E-03
            1405            1821     295.634E-03     312.445E-03
            1404            1821     295.634E-03     312.445E-03
            1420            1821     295.634E-03     312.445E-03
            1421            1821     295.634E-03     312.445E-03
            1422            1822     246.472E-03     263.010E-03
            1406            1822     246.472E-03     263.010E-03
            1405            1822     246.472E-03     263.010E-03
            1421            1822     246.472E-03     263.010E-03
            1406            1823     199.713E-03     215.172E-03
            1422            1823     199.713E-03     215.172E-03
            1407            1823     199.713E-03     215.172E-03
            1423            1823     199.713E-03     215.172E-03
            1424            1824     156.476E-03     171.524E-03
            1408            1824     156.476E-03     171.524E-03
            1423            1824     156.476E-03     171.524E-03
            1407            1824     156.476E-03     171.524E-03
            1408            1825     114.961E-03     137.387E-03
            1409            1825     114.961E-03     137.387E-03
            1425            1825     114.961E-03     137.387E-03
            1424            1825     114.961E-03     137.387E-03
            1410            1826     869.119E-03     857.942E-03
            1411            1826     869.119E-03     857.942E-03
            1427            1826     869.119E-03     857.942E-03
            1426            1826     869.119E-03     857.942E-03
            1412            1827     853.133E-03     844.698E-03
            1427            1827     853.133E-03     844.698E-03
            1428            1827     853.133E-03     844.698E-03
            1411            1827     853.133E-03     844.698E-03
            1412            1828     819.065E-03     810.055E-03
            1428            1828     819.065E-03     810.055E-03
            1429            1828     819.065E-03     810.055E-03
            1413            1828     819.065E-03     810.055E-03
            1429            1829     771.805E-03     764.988E-03
            1414            1829     771.805E-03     764.988E-03
            1430            1829     771.805E-03     764.988E-03
            1413            1829     771.805E-03     764.988E-03
            1415            1830     718.370E-03     713.260E-03
            1431            1830     718.370E-03     713.260E-03
            1430            1830     718.370E-03     713.260E-03
            1414            1830     718.370E-03     713.260E-03
            1415            1831     661.467E-03     657.473E-03
            1432            1831     661.467E-03     657.473E-03
            1431            1831     661.467E-03     657.473E-03
            1416            1831     661.467E-03     657.473E-03
            1417            1832     602.851E-03     599.915E-03
            1416            1832     602.851E-03     599.915E-03
            1432            1832     602.851E-03     599.915E-03
            1433            1832     602.851E-03     599.915E-03
            1433            1833     543.886E-03     541.310E-03
            1434            1833     543.886E-03     541.310E-03
            1417            1833     543.886E-03     541.310E-03
            1418            1833     543.886E-03     541.310E-03
            1434            1834     484.776E-03     482.621E-03
            1435            1834     484.776E-03     482.621E-03
            1419            1834     484.776E-03     482.621E-03
            1418            1834     484.776E-03     482.621E-03
            1419            1835     426.378E-03     424.352E-03
            1435            1835     426.378E-03     424.352E-03
            1436            1835     426.378E-03     424.352E-03
            1420            1835     426.378E-03     424.352E-03
            1436            1836     369.078E-03     367.292E-03
            1437            1836     369.078E-03     367.292E-03
            1421            1836     369.078E-03     367.292E-03
            1420            1836     369.078E-03     367.292E-03
            1437            1837     314.167E-03     312.569E-03
            1421            1837     314.167E-03     312.569E-03
            1422            1837     314.167E-03     312.569E-03
            1438            1837     314.167E-03     312.569E-03
            1439            1838     262.598E-03     262.249E-03
            1422            1838     262.598E-03     262.249E-03
            1438            1838     262.598E-03     262.249E-03
            1423            1838     262.598E-03     262.249E-03
            1423            1839     216.344E-03     222.253E-03
            1439            1839     216.344E-03     222.253E-03
            1440            1839     216.344E-03     222.253E-03
            1424            1839     216.344E-03     222.253E-03
            1440            1840     180.409E-03     202.362E-03
            1425            1840     180.409E-03     202.362E-03
            1441            1840     180.409E-03     202.362E-03
            1424            1840     180.409E-03     202.362E-03
            1443            1841     933.227E-03     946.630E-03
            1427            1841     933.227E-03     946.630E-03
            1426            1841     933.227E-03     946.630E-03
            1442            1841     933.227E-03     946.630E-03
            1443            1842     898.503E-03     912.486E-03
            1428            1842     898.503E-03     912.486E-03
            1427            1842     898.503E-03     912.486E-03
            1444            1842     898.503E-03     912.486E-03
            1445            1843     852.665E-03     863.833E-03
            1428            1843     852.665E-03     863.833E-03
            1429            1843     852.665E-03     863.833E-03
            1444            1843     852.665E-03     863.833E-03
            1429            1844     796.190E-03     803.971E-03
            1446            1844     796.190E-03     803.971E-03
            1445            1844     796.190E-03     803.971E-03
            1430            1844     796.190E-03     803.971E-03
            1447            1845     733.742E-03     739.976E-03
            1430            1845     733.742E-03     739.976E-03
            1431            1845     733.742E-03     739.976E-03
            1446            1845     733.742E-03     739.976E-03
            1448            1846     669.279E-03     675.241E-03
            1431            1846     669.279E-03     675.241E-03
            1432            1846     669.279E-03     675.241E-03
            1447            1846     669.279E-03     675.241E-03
            1449            1847     605.042E-03     610.587E-03
            1448            1847     605.042E-03     610.587E-03
            1433            1847     605.042E-03     610.587E-03
            1432            1847     605.042E-03     610.587E-03
            1450            1848     540.939E-03     546.470E-03
            1434            1848     540.939E-03     546.470E-03
            1449            1848     540.939E-03     546.470E-03
            1433            1848     540.939E-03     546.470E-03
            1434            1849     477.607E-03     482.986E-03
            1451            1849     477.607E-03     482.986E-03
            1435            1849     477.607E-03     482.986E-03
            1450            1849     477.607E-03     482.986E-03
            1436            1850     415.066E-03     420.339E-03
            1451            1850     415.066E-03     420.339E-03
            1435            1850     415.066E-03     420.339E-03
            1452            1850     415.066E-03     420.339E-03
            1452            1851     353.622E-03     358.965E-03
            1437            1851     353.622E-03     358.965E-03
            1436            1851     353.622E-03     358.965E-03
            1453            1851     353.622E-03     358.965E-03
            1454            1852     293.769E-03     299.880E-03
            1453            1852     293.769E-03     299.880E-03
            1438            1852     293.769E-03     299.880E-03
            1437            1852     293.769E-03     299.880E-03
            1454            1853     236.269E-03     245.089E-03
            1439            1853     236.269E-03     245.089E-03
            1455            1853     236.269E-03     245.089E-03
            1438            1853     236.269E-03     245.089E-03
            1455            1854     183.718E-03     200.618E-03
            1439            1854     183.718E-03     200.618E-03
            1440            1854     183.718E-03     200.618E-03
            1456            1854     183.718E-03     200.618E-03
            1440            1855     150.293E-03     165.365E-03
            1456            1855     150.293E-03     165.365E-03
            1441            1855     150.293E-03     165.365E-03
            1457            1855     150.293E-03     165.365E-03
            1442            1856     991.746E-03         1.01077
            1458            1856     991.746E-03         1.01077
            1443            1856     991.746E-03         1.01077
            1459            1856     991.746E-03         1.01077
            1459            1857     935.236E-03     961.396E-03
            1460            1857     935.236E-03     961.396E-03
            1444            1857     935.236E-03     961.396E-03
            1443            1857     935.236E-03     961.396E-03
            1445            1858     875.413E-03     898.374E-03
            1444            1858     875.413E-03     898.374E-03
            1460            1858     875.413E-03     898.374E-03
            1461            1858     875.413E-03     898.374E-03
            1446            1859     807.965E-03     827.507E-03
            1461            1859     807.965E-03     827.507E-03
            1462            1859     807.965E-03     827.507E-03
            1445            1859     807.965E-03     827.507E-03
            1462            1860     738.579E-03     755.874E-03
            1463            1860     738.579E-03     755.874E-03
            1447            1860     738.579E-03     755.874E-03
            1446            1860     738.579E-03     755.874E-03
            1447            1861     670.509E-03     685.939E-03
            1464            1861     670.509E-03     685.939E-03
            1448            1861     670.509E-03     685.939E-03
            1463            1861     670.509E-03     685.939E-03
            1448            1862     602.797E-03     617.286E-03
            1464            1862     602.797E-03     617.286E-03
            1449            1862     602.797E-03     617.286E-03
            1465            1862     602.797E-03     617.286E-03
            1466            1863     536.031E-03     549.925E-03
            1450            1863     536.031E-03     549.925E-03
            1465            1863     536.031E-03     549.925E-03
            1449            1863     536.031E-03     549.925E-03
            1466            1864     469.985E-03     483.508E-03
            1467            1864     469.985E-03     483.508E-03
            1451            1864     469.985E-03     483.508E-03
            1450            1864     469.985E-03     483.508E-03
            1452            1865     404.679E-03     418.007E-03
            1467            1865     404.679E-03     418.007E-03
            1468            1865     404.679E-03     418.007E-03
            1451            1865     404.679E-03     418.007E-03
            1468            1866     340.227E-03     353.641E-03
            1469            1866     340.227E-03     353.641E-03
            1452            1866     340.227E-03     353.641E-03
            1453            1866     340.227E-03     353.641E-03
            1453            1867     276.682E-03     290.902E-03
            1454            1867     276.682E-03     290.902E-03
            1469            1867     276.682E-03     290.902E-03
            1470            1867     276.682E-03     290.902E-03
            1454            1868     214.502E-03     232.160E-03
            1455            1868     214.502E-03     232.160E-03
            1471            1868     214.502E-03     232.160E-03
            1470            1868     214.502E-03     232.160E-03
            1471            1869     158.892E-03     177.429E-03
            1472            1869     158.892E-03     177.429E-03
            1455            1869     158.892E-03     177.429E-03
            1456            1869     158.892E-03     177.429E-03
            1473            1870     118.583E-03     127.098E-03
            1472            1870     118.583E-03     127.098E-03
            1457            1870     118.583E-03     127.098E-03
            1456            1870     118.583E-03     127.098E-03
            1459            1871         1.03882         1.06326
            1474            1871         1.03882         1.06326
            1475            1871         1.03882         1.06326
            1458            1871         1.03882         1.06326
            1476            1872     964.280E-03     991.291E-03
            1475            1872     964.280E-03     991.291E-03
            1460            1872     964.280E-03     991.291E-03
            1459            1872     964.280E-03     991.291E-03
            1461            1873     882.349E-03     911.133E-03
            1477            1873     882.349E-03     911.133E-03
            1476            1873     882.349E-03     911.133E-03
            1460            1873     882.349E-03     911.133E-03
            1461            1874     804.003E-03     832.331E-03
            1462            1874     804.003E-03     832.331E-03
            1478            1874     804.003E-03     832.331E-03
            1477            1874     804.003E-03     832.331E-03
            1463            1875     732.785E-03     758.653E-03
            1478            1875     732.785E-03     758.653E-03
            1479            1875     732.785E-03     758.653E-03
            1462            1875     732.785E-03     758.653E-03
            1464            1876     663.271E-03     687.257E-03
            1479            1876     663.271E-03     687.257E-03
            1463            1876     663.271E-03     687.257E-03
            1480            1876     663.271E-03     687.257E-03
            1465            1877     595.060E-03     618.079E-03
            1481            1877     595.060E-03     618.079E-03
            1480            1877     595.060E-03     618.079E-03
            1464            1877     595.060E-03     618.079E-03
            1465            1878     527.624E-03     549.968E-03
            1482            1878     527.624E-03     549.968E-03
            1481            1878     527.624E-03     549.968E-03
            1466            1878     527.624E-03     549.968E-03
            1482            1879     460.679E-03     482.700E-03
            1483            1879     460.679E-03     482.700E-03
            1466            1879     460.679E-03     482.700E-03
            1467            1879     460.679E-03     482.700E-03
            1468            1880     394.255E-03     416.062E-03
            1483            1880     394.255E-03     416.062E-03
            1484            1880     394.255E-03     416.062E-03
            1467            1880     394.255E-03     416.062E-03
            1484            1881     328.226E-03     350.046E-03
            1485            1881     328.226E-03     350.046E-03
            1468            1881     328.226E-03     350.046E-03
            1469            1881     328.226E-03     350.046E-03
            1470            1882     262.663E-03     285.073E-03
            1485            1882     262.663E-03     285.073E-03
            1486            1882     262.663E-03     285.073E-03
            1469            1882     262.663E-03     285.073E-03
            1486            1883     198.263E-03     221.675E-03
            1487            1883     198.263E-03     221.675E-03
            1470            1883     198.263E-03     221.675E-03
            1471            1883     198.263E-03     221.675E-03
            1487            1884     136.941E-03     159.516E-03
            1471            1884     136.941E-03     159.516E-03
            1488            1884     136.941E-03     159.516E-03
            1472            1884     136.941E-03     159.516E-03
            1488            1885     87.7709E-03     102.521E-03
            1473            1885     87.7709E-03     102.521E-03
            1489            1885     87.7709E-03     102.521E-03
            1472            1885     87.7709E-03     102.521E-03
            1474            1886         1.08180         1.09571
            1475            1886         1.08180         1.09571
            1490            1886         1.08180         1.09571
            1491            1886         1.08180         1.09571
            1475            1887     969.788E-03     996.864E-03
            1492            1887     969.788E-03     996.864E-03
            1476            1887     969.788E-03     996.864E-03
            1491            1887     969.788E-03     996.864E-03
            1493            1888     866.689E-03     900.455E-03
            1477            1888     866.689E-03     900.455E-03
            1476            1888     866.689E-03     900.455E-03
            1492            1888     866.689E-03     900.455E-03
            1494            1889     788.321E-03     821.584E-03
            1478            1889     788.321E-03     821.584E-03
            1493            1889     788.321E-03     821.584E-03
            1477            1889     788.321E-03     821.584E-03
            1479            1890     717.277E-03     749.259E-03
            1494            1890     717.277E-03     749.259E-03
            1478            1890     717.277E-03     749.259E-03
            1495            1890     717.277E-03     749.259E-03
            1495            1891     649.094E-03     680.604E-03
            1479            1891     649.094E-03     680.604E-03
            1496            1891     649.094E-03     680.604E-03
            1480            1891     649.094E-03     680.604E-03
            1496            1892     582.398E-03     613.343E-03
            1481            1892     582.398E-03     613.343E-03
            1480            1892     582.398E-03     613.343E-03
            1497            1892     582.398E-03     613.343E-03
            1482            1893     515.924E-03     546.785E-03
            1497            1893     515.924E-03     546.785E-03
            1481            1893     515.924E-03     546.785E-03
            1498            1893     515.924E-03     546.785E-03
            1482            1894     449.756E-03     480.475E-03
            1499            1894     449.756E-03     480.475E-03
            1483            1894     449.756E-03     480.475E-03
            1498            1894     449.756E-03     480.475E-03
            1484            1895     383.631E-03     414.242E-03
            1500            1895     383.631E-03     414.242E-03
            1483            1895     383.631E-03     414.242E-03
            1499            1895     383.631E-03     414.242E-03
            1500            1896     317.633E-03     348.118E-03
            1501            1896     317.633E-03     348.118E-03
            1485            1896     317.633E-03     348.118E-03
            1484            1896     317.633E-03     348.118E-03
            1486            1897     251.812E-03     282.209E-03
            1502            1897     251.812E-03     282.209E-03
            1485            1897     251.812E-03     282.209E-03
            1501            1897     251.812E-03     282.209E-03
            1503            1898     186.781E-03     215.733E-03
            1487            1898     186.781E-03     215.733E-03
            1502            1898     186.781E-03     215.733E-03
            1486            1898     186.781E-03     215.733E-03
            1488            1899     122.241E-03     150.635E-03
            1503            1899     122.241E-03     150.635E-03
            1504            1899     122.241E-03     150.635E-03
            1487            1899     122.241E-03     150.635E-03
            1488            1900     61.8216E-03     88.0851E-03
            1505            1900     61.8216E-03     88.0851E-03
            1489            1900     61.8216E-03     88.0851E-03
            1504            1900     61.8216E-03     88.0851E-03
            1491            1901         1.08479         1.10901
            1507            1901         1.08479         1.10901
            1506            1901         1.08479         1.10901
            1490            1901         1.08479         1.10901
            1492            1902     936.674E-03     969.783E-03
            1491            1902     936.674E-03     969.783E-03
            1508            1902     936.674E-03     969.783E-03
            1507            1902     936.674E-03     969.783E-03
            1493            1903     839.734E-03     873.357E-03
            1492            1903     839.734E-03     873.357E-03
            1508            1903     839.734E-03     873.357E-03
            1509            1903     839.734E-03     873.357E-03
            1510            1904     764.627E-03     799.989E-03
            1509            1904     764.627E-03     799.989E-03
            1493            1904     764.627E-03     799.989E-03
            1494            1904     764.627E-03     799.989E-03
            1511            1905     695.786E-03     732.912E-03
            1510            1905     695.786E-03     732.912E-03
            1494            1905     695.786E-03     732.912E-03
            1495            1905     695.786E-03     732.912E-03
            1511            1906     630.860E-03     669.040E-03
            1495            1906     630.860E-03     669.040E-03
            1512            1906     630.860E-03     669.040E-03
            1496            1906     630.860E-03     669.040E-03
            1512            1907     566.500E-03     605.511E-03
            1496            1907     566.500E-03     605.511E-03
            1497            1907     566.500E-03     605.511E-03
            1513            1907     566.500E-03     605.511E-03
            1514            1908     502.514E-03     541.922E-03
            1497            1908     502.514E-03     541.922E-03
            1513            1908     502.514E-03     541.922E-03
            1498            1908     502.514E-03     541.922E-03
            1498            1909     438.214E-03     477.873E-03
            1515            1909     438.214E-03     477.873E-03
            1499            1909     438.214E-03     477.873E-03
            1514            1909     438.214E-03     477.873E-03
            1499            1910     373.723E-03     413.447E-03
            1515            1910     373.723E-03     413.447E-03
            1516            1910     373.723E-03     413.447E-03
            1500            1910     373.723E-03     413.447E-03
            1500            1911     309.102E-03     348.630E-03
            1516            1911     309.102E-03     348.630E-03
            1517            1911     309.102E-03     348.630E-03
            1501            1911     309.102E-03     348.630E-03
            1517            1912     244.742E-03     283.198E-03
            1518            1912     244.742E-03     283.198E-03
            1502            1912     244.742E-03     283.198E-03
            1501            1912     244.742E-03     283.198E-03
            1502            1913     180.731E-03     217.357E-03
            1518            1913     180.731E-03     217.357E-03
            1503            1913     180.731E-03     217.357E-03
            1519            1913     180.731E-03     217.357E-03
            1519            1914     118.708E-03     150.525E-03
            1520            1914     118.708E-03     150.525E-03
            1504            1914     118.708E-03     150.525E-03
            1503            1914     118.708E-03     150.525E-03
            1521            1915     57.4785E-03     87.4644E-03
            1505            1915     57.4785E-03     87.4644E-03
            1520            1915     57.4785E-03     87.4644E-03
            1504            1915     57.4785E-03     87.4644E-03
            1507            1916         1.08312         1.10207
            1523            1916         1.08312         1.10207
            1506            1916         1.08312         1.10207
            1522            1916         1.08312         1.10207
            1508            1917     996.276E-03         1.00141
            1524            1917     996.276E-03         1.00141
            1507            1917     996.276E-03         1.00141
            1523            1917     996.276E-03         1.00141
            1508            1918     928.679E-03     936.564E-03
            1524            1918     928.679E-03     936.564E-03
            1525            1918     928.679E-03     936.564E-03
            1509            1918     928.679E-03     936.564E-03
            1526            1919     860.166E-03     873.243E-03
            1525            1919     860.166E-03     873.243E-03
            1510            1919     860.166E-03     873.243E-03
            1509            1919     860.166E-03     873.243E-03
            1526            1920     793.653E-03     809.627E-03
            1527            1920     793.653E-03     809.627E-03
            1511            1920     793.653E-03     809.627E-03
            1510            1920     793.653E-03     809.627E-03
            1512            1921     725.748E-03     744.094E-03
            1528            1921     725.748E-03     744.094E-03
            1527            1921     725.748E-03     744.094E-03
            1511            1921     725.748E-03     744.094E-03
            1512            1922     657.830E-03     677.019E-03
            1528            1922     657.830E-03     677.019E-03
            1513            1922     657.830E-03     677.019E-03
            1529            1922     657.830E-03     677.019E-03
            1530            1923     589.092E-03     609.074E-03
            1514            1923     589.092E-03     609.074E-03
            1529            1923     589.092E-03     609.074E-03
            1513            1923     589.092E-03     609.074E-03
            1530            1924     520.116E-03     540.265E-03
            1531            1924     520.116E-03     540.265E-03
            1515            1924     520.116E-03     540.265E-03
            1514            1924     520.116E-03     540.265E-03
            1531            1925     450.933E-03     471.452E-03
            1516            1925     450.933E-03     471.452E-03
            1532            1925     450.933E-03     471.452E-03
            1515            1925     450.933E-03     471.452E-03
            1533            1926     382.282E-03     402.740E-03
            1516            1926     382.282E-03     402.740E-03
            1517            1926     382.282E-03     402.740E-03
            1532            1926     382.282E-03     402.740E-03
            1533            1927     314.935E-03     335.020E-03
            1517            1927     314.935E-03     335.020E-03
            1534            1927     314.935E-03     335.020E-03
            1518            1927     314.935E-03     335.020E-03
            1518            1928     250.424E-03     268.763E-03
            1519            1928     250.424E-03     268.763E-03
            1534            1928     250.424E-03     268.763E-03
            1535            1928     250.424E-03     268.763E-03
            1535            1929     190.982E-03     207.531E-03
            1519            1929     190.982E-03     207.531E-03
            1520            1929     190.982E-03     207.531E-03
            1536            1929     190.982E-03     207.531E-03
            1536            1930     136.562E-03     159.248E-03
            1521            1930     136.562E-03     159.248E-03
            1520            1930     136.562E-03     159.248E-03
            1537            1930     136.562E-03     159.248E-03
            1539            1931         1.14645         1.14014
            1523            1931         1.14645         1.14014
            1538            1931         1.14645         1.14014
            1522            1931         1.14645         1.14014
            1524            1932         1.10950         1.10524
            1540            1932         1.10950         1.10524
            1523            1932         1.10950         1.10524
            1539            1932         1.10950         1.10524
            1524            1933         1.05234         1.04946
            1540            1933         1.05234         1.04946
            1525            1933         1.05234         1.04946
            1541            1933         1.05234         1.04946
            1525            1934     984.973E-03     983.060E-03
            1541            1934     984.973E-03     983.060E-03
            1542            1934     984.973E-03     983.060E-03
            1526            1934     984.973E-03     983.060E-03
            1527            1935     910.826E-03     910.311E-03
            1526            1935     910.826E-03     910.311E-03
            1543            1935     910.826E-03     910.311E-03
            1542            1935     910.826E-03     910.311E-03
            1528            1936     834.364E-03     835.031E-03
            1543            1936     834.364E-03     835.031E-03
            1544            1936     834.364E-03     835.031E-03
            1527            1936     834.364E-03     835.031E-03
            1545            1937     757.241E-03     758.150E-03
            1528            1937     757.241E-03     758.150E-03
            1544            1937     757.241E-03     758.150E-03
            1529            1937     757.241E-03     758.150E-03
            1529            1938     679.536E-03     680.813E-03
            1545            1938     679.536E-03     680.813E-03
            1546            1938     679.536E-03     680.813E-03
            1530            1938     679.536E-03     680.813E-03
            1531            1939     602.027E-03     603.303E-03
            1530            1939     602.027E-03     603.303E-03
            1547            1939     602.027E-03     603.303E-03
            1546            1939     602.027E-03     603.303E-03
            1532            1940     524.880E-03     526.289E-03
            1547            1940     524.880E-03     526.289E-03
            1548            1940     524.880E-03     526.289E-03
            1531            1940     524.880E-03     526.289E-03
            1548            1941     448.823E-03     450.234E-03
            1532            1941     448.823E-03     450.234E-03
            1549            1941     448.823E-03     450.234E-03
            1533            1941     448.823E-03     450.234E-03
            1533            1942     374.893E-03     376.494E-03
            1549            1942     374.893E-03     376.494E-03
            1550            1942     374.893E-03     376.494E-03
            1534            1942     374.893E-03     376.494E-03
            1535            1943     304.558E-03     306.773E-03
            1551            1943     304.558E-03     306.773E-03
            1550            1943     304.558E-03     306.773E-03
            1534            1943     304.558E-03     306.773E-03
            1551            1944     240.471E-03     247.455E-03
            1552            1944     240.471E-03     247.455E-03
            1535            1944     240.471E-03     247.455E-03
            1536            1944     240.471E-03     247.455E-03
            1537            1945     189.237E-03     213.453E-03
            1553            1945     189.237E-03     213.453E-03
            1552            1945     189.237E-03     213.453E-03
            1536            1945     189.237E-03     213.453E-03
            1555            1946         1.22054         1.23742
            1538            1946         1.22054         1.23742
            1554            1946         1.22054         1.23742
            1539            1946         1.22054         1.23742
            1555            1947         1.15950         1.18337
            1540            1947         1.15950         1.18337
            1556            1947         1.15950         1.18337
            1539            1947         1.15950         1.18337
            1541            1948         1.08791         1.10588
            1557            1948         1.08791         1.10588
            1540            1948         1.08791         1.10588
            1556            1948         1.08791         1.10588
            1541            1949         1.00616         1.02059
            1557            1949         1.00616         1.02059
            1558            1949         1.00616         1.02059
            1542            1949         1.00616         1.02059
            1542            1950     921.707E-03     934.897E-03
            1543            1950     921.707E-03     934.897E-03
            1559            1950     921.707E-03     934.897E-03
            1558            1950     921.707E-03     934.897E-03
            1543            1951     838.398E-03     850.650E-03
            1559            1951     838.398E-03     850.650E-03
            1560            1951     838.398E-03     850.650E-03
            1544            1951     838.398E-03     850.650E-03
            1545            1952     755.242E-03     767.305E-03
            1561            1952     755.242E-03     767.305E-03
            1544            1952     755.242E-03     767.305E-03
            1560            1952     755.242E-03     767.305E-03
            1561            1953     672.976E-03     684.805E-03
            1545            1953     672.976E-03     684.805E-03
            1562            1953     672.976E-03     684.805E-03
            1546            1953     672.976E-03     684.805E-03
            1547            1954     591.225E-03     602.964E-03
            1563            1954     591.225E-03     602.964E-03
            1546            1954     591.225E-03     602.964E-03
            1562            1954     591.225E-03     602.964E-03
            1547            1955     510.320E-03     521.731E-03
            1564            1955     510.320E-03     521.731E-03
            1548            1955     510.320E-03     521.731E-03
            1563            1955     510.320E-03     521.731E-03
            1565            1956     430.212E-03     441.427E-03
            1548            1956     430.212E-03     441.427E-03
            1549            1956     430.212E-03     441.427E-03
            1564            1956     430.212E-03     441.427E-03
            1565            1957     351.469E-03     362.795E-03
            1549            1957     351.469E-03     362.795E-03
            1566            1957     351.469E-03     362.795E-03
            1550            1957     351.469E-03     362.795E-03
            1566            1958     274.363E-03     288.026E-03
            1551            1958     274.363E-03     288.026E-03
            1550            1958     274.363E-03     288.026E-03
            1567            1958     274.363E-03     288.026E-03
            1552            1959     201.639E-03     223.098E-03
            1568            1959     201.639E-03     223.098E-03
            1551            1959     201.639E-03     223.098E-03
            1567            1959     201.639E-03     223.098E-03
            1569            1960     150.072E-03     169.423E-03
            1552            1960     150.072E-03     169.423E-03
            1553            1960     150.072E-03     169.423E-03
            1568            1960     150.072E-03     169.423E-03
            1554            1961         1.27462         1.30902
            1555            1961         1.27462         1.30902
            1571            1961         1.27462         1.30902
            1570            1961         1.27462         1.30902
            1556            1962         1.19507         1.22728
            1572            1962         1.19507         1.22728
            1555            1962         1.19507         1.22728
            1571            1962         1.19507         1.22728
            1557            1963         1.10175         1.13269
            1572            1963         1.10175         1.13269
            1573            1963         1.10175         1.13269
            1556            1963         1.10175         1.13269
            1574            1964         1.00795         1.03671
            1557            1964         1.00795         1.03671
            1573            1964         1.00795         1.03671
            1558            1964         1.00795         1.03671
            1574            1965     920.719E-03     946.154E-03
            1558            1965     920.719E-03     946.154E-03
            1559            1965     920.719E-03     946.154E-03
            1575            1965     920.719E-03     946.154E-03
            1575            1966     834.182E-03     858.066E-03
            1559            1966     834.182E-03     858.066E-03
            1560            1966     834.182E-03     858.066E-03
            1576            1966     834.182E-03     858.066E-03
            1561            1967     749.016E-03     772.191E-03
            1577            1967     749.016E-03     772.191E-03
            1576            1967     749.016E-03     772.191E-03
            1560            1967     749.016E-03     772.191E-03
            1561            1968     664.517E-03     687.391E-03
            1562            1968     664.517E-03     687.391E-03
            1577            1968     664.517E-03     687.391E-03
            1578            1968     664.517E-03     687.391E-03
            1562            1969     580.755E-03     603.359E-03
            1563            1969     580.755E-03     603.359E-03
            1578            1969     580.755E-03     603.359E-03
            1579            1969     580.755E-03     603.359E-03
            1563            1970     497.516E-03     519.865E-03
            1580            1970     497.516E-03     519.865E-03
            1564            1970     497.516E-03     519.865E-03
            1579            1970     497.516E-03     519.865E-03
            1580            1971     414.955E-03     437.041E-03
            1564            1971     414.955E-03     437.041E-03
            1565            1971     414.955E-03     437.041E-03
            1581            1971     414.955E-03     437.041E-03
            1582            1972     332.870E-03     355.074E-03
            1565            1972     332.870E-03     355.074E-03
            1566            1972     332.870E-03     355.074E-03
            1581            1972     332.870E-03     355.074E-03
            1582            1973     251.184E-03     276.089E-03
            1567            1973     251.184E-03     276.089E-03
            1566            1973     251.184E-03     276.089E-03
            1583            1973     251.184E-03     276.089E-03
            1568            1974     172.982E-03     201.930E-03
            1567            1974     172.982E-03     201.930E-03
            1584            1974     172.982E-03     201.930E-03
            1583            1974     172.982E-03     201.930E-03
            1584            1975     110.212E-03     128.573E-03
            1568            1975     110.212E-03     128.573E-03
            1569            1975     110.212E-03     128.573E-03
            1585            1975     110.212E-03     128.573E-03
            1586            1976         1.32157         1.33957
            1587            1976         1.32157         1.33957
            1570            1976         1.32157         1.33957
            1571            1976         1.32157         1.33957
            1571            1977         1.20007         1.23566
            1588            1977         1.20007         1.23566
            1587            1977         1.20007         1.23566
            1572            1977         1.20007         1.23566
            1588            1978         1.08546         1.12532
            1589            1978         1.08546         1.12532
            1572            1978         1.08546         1.12532
            1573            1978         1.08546         1.12532
            1590            1979     993.522E-03         1.03100
            1589            1979     993.522E-03         1.03100
            1573            1979     993.522E-03         1.03100
            1574            1979     993.522E-03         1.03100
            1591            1980     906.448E-03     941.900E-03
            1575            1980     906.448E-03     941.900E-03
            1590            1980     906.448E-03     941.900E-03
            1574            1980     906.448E-03     941.900E-03
            1576            1981     821.418E-03     856.009E-03
            1575            1981     821.418E-03     856.009E-03
            1592            1981     821.418E-03     856.009E-03
            1591            1981     821.418E-03     856.009E-03
            1592            1982     737.183E-03     771.359E-03
            1577            1982     737.183E-03     771.359E-03
            1576            1982     737.183E-03     771.359E-03
            1593            1982     737.183E-03     771.359E-03
            1578            1983     653.208E-03     687.276E-03
            1593            1983     653.208E-03     687.276E-03
            1594            1983     653.208E-03     687.276E-03
            1577            1983     653.208E-03     687.276E-03
            1595            1984     569.502E-03     603.475E-03
            1594            1984     569.502E-03     603.475E-03
            1579            1984     569.502E-03     603.475E-03
            1578            1984     569.502E-03     603.475E-03
            1579            1985     486.003E-03     519.811E-03
            1595            1985     486.003E-03     519.811E-03
            1580            1985     486.003E-03     519.811E-03
            1596            1985     486.003E-03     519.811E-03
            1581            1986     402.671E-03     436.266E-03
            1597            1986     402.671E-03     436.266E-03
            1596            1986     402.671E-03     436.266E-03
            1580            1986     402.671E-03     436.266E-03
            1597            1987     319.472E-03     353.152E-03
            1582            1987     319.472E-03     353.152E-03
            1598            1987     319.472E-03     353.152E-03
            1581            1987     319.472E-03     353.152E-03
            1582            1988     236.653E-03     270.678E-03
            1599            1988     236.653E-03     270.678E-03
            1583            1988     236.653E-03     270.678E-03
            1598            1988     236.653E-03     270.678E-03
            1600            1989     155.066E-03     188.073E-03
            1584            1989     155.066E-03     188.073E-03
            1599            1989     155.066E-03     188.073E-03
            1583            1989     155.066E-03     188.073E-03
            1585            1990     76.5465E-03     113.199E-03
            1601            1990     76.5465E-03     113.199E-03
            1584            1990     76.5465E-03     113.199E-03
            1600            1990     76.5465E-03     113.199E-03
            1602            1991         1.31823         1.34685
            1603            1991         1.31823         1.34685
            1586            1991         1.31823         1.34685
            1587            1991         1.31823         1.34685
            1588            1992         1.16055         1.19984
            1604            1992         1.16055         1.19984
            1603            1992         1.16055         1.19984
            1587            1992         1.16055         1.19984
            1588            1993         1.05293         1.09414
            1604            1993         1.05293         1.09414
            1605            1993         1.05293         1.09414
            1589            1993         1.05293         1.09414
            1605            1994     966.022E-03         1.00851
            1590            1994     966.022E-03         1.00851
            1589            1994     966.022E-03         1.00851
            1606            1994     966.022E-03         1.00851
            1606            1995     882.822E-03     926.860E-03
            1590            1995     882.822E-03     926.860E-03
            1591            1995     882.822E-03     926.860E-03
            1607            1995     882.822E-03     926.860E-03
            1592            1996     802.094E-03     846.892E-03
            1608            1996     802.094E-03     846.892E-03
            1591            1996     802.094E-03     846.892E-03
            1607            1996     802.094E-03     846.892E-03
            1593            1997     721.114E-03     766.298E-03
            1609            1997     721.114E-03     766.298E-03
            1592            1997     721.114E-03     766.298E-03
            1608            1997     721.114E-03     766.298E-03
            1594            1998     639.931E-03     685.344E-03
            1593            1998     639.931E-03     685.344E-03
            1609            1998     639.931E-03     685.344E-03
            1610            1998     639.931E-03     685.344E-03
            1595            1999     558.229E-03     603.720E-03
            1610            1999     558.229E-03     603.720E-03
            1611            1999     558.229E-03     603.720E-03
            1594            1999     558.229E-03     603.720E-03
            1612            2000     476.247E-03     521.829E-03
            1595            2000     476.247E-03     521.829E-03
            1596            2000     476.247E-03     521.829E-03
            1611            2000     476.247E-03     521.829E-03
            1596            2001     394.036E-03     439.527E-03
            1613            2001     394.036E-03     439.527E-03
            1612            2001     394.036E-03     439.527E-03
            1597            2001     394.036E-03     439.527E-03
            1597            2002     312.009E-03     357.180E-03
            1598            2002     312.009E-03     357.180E-03
            1613            2002     312.009E-03     357.180E-03
            1614            2002     312.009E-03     357.180E-03
            1598            2003     230.895E-03     273.817E-03
            1615            2003     230.895E-03     273.817E-03
            1599            2003     230.895E-03     273.817E-03
            1614            2003     230.895E-03     273.817E-03
            1600            2004     151.391E-03     190.174E-03
            1616            2004     151.391E-03     190.174E-03
            1615            2004     151.391E-03     190.174E-03
            1599            2004     151.391E-03     190.174E-03
            1601            2005     73.8218E-03     111.899E-03
            1617            2005     73.8218E-03     111.899E-03
            1600            2005     73.8218E-03     111.899E-03
            1616            2005     73.8218E-03     111.899E-03
            1689            2042         1.33956         1.34878
            1674            2042         1.33956         1.34878
            1690            2042         1.33956         1.34878
            1673            2042         1.33956         1.34878
            1690            2043         1.27482         1.28173
            1691            2043         1.27482         1.28173
            1674            2043         1.27482         1.28173
            1675            2043         1.27482         1.28173
            1692            2044         1.19708         1.20481
            1675            2044         1.19708         1.20481
            1676            2044         1.19708         1.20481
            1691            2044         1.19708         1.20481
            1676            2045         1.11028         1.11893
            1677            2045         1.11028         1.11893
            1693            2045         1.11028         1.11893
            1692            2045         1.11028         1.11893
            1677            2046         1.02098         1.03004
            1678            2046         1.02098         1.03004
            1694            2046         1.02098         1.03004
            1693            2046         1.02098         1.03004
            1694            2047     930.913E-03     940.484E-03
            1695            2047     930.913E-03     940.484E-03
            1678            2047     930.913E-03     940.484E-03
            1679            2047     930.913E-03     940.484E-03
            1680            2048     840.302E-03     849.485E-03
            1696            2048     840.302E-03     849.485E-03
            1695            2048     840.302E-03     849.485E-03
            1679            2048     840.302E-03     849.485E-03
            1681            2049     749.118E-03     758.594E-03
            1696            2049     749.118E-03     758.594E-03
            1697            2049     749.118E-03     758.594E-03
            1680            2049     749.118E-03     758.594E-03
            1697            2050     657.973E-03     667.215E-03
            1682            2050     657.973E-03     667.215E-03
            1698            2050     657.973E-03     667.215E-03
            1681            2050     657.973E-03     667.215E-03
            1699            2051     566.789E-03     576.261E-03
            1682            2051     566.789E-03     576.261E-03
            1683            2051     566.789E-03     576.261E-03
            1698            2051     566.789E-03     576.261E-03
            1684            2052     476.118E-03     485.652E-03
            1700            2052     476.118E-03     485.652E-03
            1683            2052     476.118E-03     485.652E-03
            1699            2052     476.118E-03     485.652E-03
            1700            2053     386.209E-03     396.137E-03
            1701            2053     386.209E-03     396.137E-03
            1685            2053     386.209E-03     396.137E-03
            1684            2053     386.209E-03     396.137E-03
            1702            2054     298.241E-03     308.424E-03
            1701            2054     298.241E-03     308.424E-03
            1686            2054     298.241E-03     308.424E-03
            1685            2054     298.241E-03     308.424E-03
            1703            2055     214.106E-03     225.358E-03
            1687            2055     214.106E-03     225.358E-03
            1686            2055     214.106E-03     225.358E-03
            1702            2055     214.106E-03     225.358E-03
            1704            2056     134.429E-03     152.198E-03
            1687            2056     134.429E-03     152.198E-03
            1703            2056     134.429E-03     152.198E-03
            1688            2056     134.429E-03     152.198E-03
            1706            2057         1.43034         1.43959
            1705            2057         1.43034         1.43959
            1689            2057         1.43034         1.43959
            1690            2057         1.43034         1.43959
            1707            2058         1.37134         1.37596
            1706            2058         1.37134         1.37596
            1691            2058         1.37134         1.37596
            1690            2058         1.37134         1.37596
            1692            2059         1.28349         1.28822
            1691            2059         1.28349         1.28822
            1708            2059         1.28349         1.28822
            1707            2059         1.28349         1.28822
            1709            2060         1.18773         1.19330
            1708            2060         1.18773         1.19330
            1693            2060         1.18773         1.19330
            1692            2060         1.18773         1.19330
            1694            2061         1.09224         1.09730
            1693            2061         1.09224         1.09730
            1710            2061         1.09224         1.09730
            1709            2061         1.09224         1.09730
            1694            2062     995.529E-03         1.00103
            1711            2062     995.529E-03         1.00103
            1710            2062     995.529E-03         1.00103
            1695            2062     995.529E-03         1.00103
            1711            2063     899.104E-03     904.351E-03
            1696            2063     899.104E-03     904.351E-03
            1712            2063     899.104E-03     904.351E-03
            1695            2063     899.104E-03     904.351E-03
            1696            2064     802.176E-03     807.621E-03
            1697            2064     802.176E-03     807.621E-03
            1712            2064     802.176E-03     807.621E-03
            1713            2064     802.176E-03     807.621E-03
            1713            2065     705.531E-03     710.827E-03
            1697            2065     705.531E-03     710.827E-03
            1698            2065     705.531E-03     710.827E-03
            1714            2065     705.531E-03     710.827E-03
            1698            2066     609.059E-03     614.435E-03
            1714            2066     609.059E-03     614.435E-03
            1715            2066     609.059E-03     614.435E-03
            1699            2066     609.059E-03     614.435E-03
            1699            2067     513.467E-03     518.656E-03
            1715            2067     513.467E-03     518.656E-03
            1700            2067     513.467E-03     518.656E-03
            1716            2067     513.467E-03     518.656E-03
            1716            2068     419.148E-03     424.399E-03
            1717            2068     419.148E-03     424.399E-03
            1700            2068     419.148E-03     424.399E-03
            1701            2068     419.148E-03     424.399E-03
            1701            2069     327.398E-03     332.552E-03
            1702            2069     327.398E-03     332.552E-03
            1717            2069     327.398E-03     332.552E-03
            1718            2069     327.398E-03     332.552E-03
            1718            2070     240.861E-03     249.203E-03
            1703            2070     240.861E-03     249.203E-03
            1702            2070     240.861E-03     249.203E-03
            1719            2070     240.861E-03     249.203E-03
            1720            2071     168.209E-03     190.047E-03
            1704            2071     168.209E-03     190.047E-03
            1719            2071     168.209E-03     190.047E-03
            1703            2071     168.209E-03     190.047E-03
            1705            2072         1.51333         1.53082
            1706            2072         1.51333         1.53082
            1721            2072         1.51333         1.53082
            1722            2072         1.51333         1.53082
            1722            2073         1.40392         1.43592
            1706            2073         1.40392         1.43592
            1707            2073         1.40392         1.43592
            1723            2073         1.40392         1.43592
            1707            2074         1.28830         1.31948
            1723            2074         1.28830         1.31948
            1708            2074         1.28830         1.31948
            1724            2074         1.28830         1.31948
            1709            2075         1.18583         1.21438
            1725            2075         1.18583         1.21438
            1724            2075         1.18583         1.21438
            1708            2075         1.18583         1.21438
            1709            2076         1.08451         1.11216
            1710            2076         1.08451         1.11216
            1726            2076         1.08451         1.11216
            1725            2076         1.08451         1.11216
            1710            2077     984.141E-03         1.01149
            1726            2077     984.141E-03         1.01149
            1711            2077     984.141E-03         1.01149
            1727            2077     984.141E-03         1.01149
            1727            2078     884.335E-03     911.935E-03
            1728            2078     884.335E-03     911.935E-03
            1711            2078     884.335E-03     911.935E-03
            1712            2078     884.335E-03     911.935E-03
            1713            2079     785.100E-03     812.577E-03
            1728            2079     785.100E-03     812.577E-03
            1729            2079     785.100E-03     812.577E-03
            1712            2079     785.100E-03     812.577E-03
            1729            2080     686.048E-03     713.663E-03
            1714            2080     686.048E-03     713.663E-03
            1730            2080     686.048E-03     713.663E-03
            1713            2080     686.048E-03     713.663E-03
            1714            2081     587.439E-03     614.843E-03
            1715            2081     587.439E-03     614.843E-03
            1731            2081     587.439E-03     614.843E-03
            1730            2081     587.439E-03     614.843E-03
            1715            2082     489.237E-03     516.290E-03
            1716            2082     489.237E-03     516.290E-03
            1731            2082     489.237E-03     516.290E-03
            1732            2082     489.237E-03     516.290E-03
            1717            2083     391.992E-03     418.059E-03
            1716            2083     391.992E-03     418.059E-03
            1733            2083     391.992E-03     418.059E-03
            1732            2083     391.992E-03     418.059E-03
            1717            2084     295.012E-03     320.775E-03
            1734            2084     295.012E-03     320.775E-03
            1718            2084     295.012E-03     320.775E-03
            1733            2084     295.012E-03     320.775E-03
            1718            2085     199.737E-03     229.520E-03
            1735            2085     199.737E-03     229.520E-03
            1719            2085     199.737E-03     229.520E-03
            1734            2085     199.737E-03     229.520E-03
            1719            2086     118.372E-03     151.876E-03
            1736            2086     118.372E-03     151.876E-03
            1720            2086     118.372E-03     151.876E-03
            1735            2086     118.372E-03     151.876E-03
            1721            2087         1.51927         1.56044
            1737            2087         1.51927         1.56044
            1738            2087         1.51927         1.56044
            1722            2087         1.51927         1.56044
            1738            2088         1.37049         1.42014
            1739            2088         1.37049         1.42014
            1722            2088         1.37049         1.42014
            1723            2088         1.37049         1.42014
            1723            2089         1.26007         1.31033
            1740            2089         1.26007         1.31033
            1724            2089         1.26007         1.31033
            1739            2089         1.26007         1.31033
            1741            2090         1.16219         1.21187
            1740            2090         1.16219         1.21187
            1724            2090         1.16219         1.21187
            1725            2090         1.16219         1.21187
            1725            2091         1.06425         1.11397
            1741            2091         1.06425         1.11397
            1742            2091         1.06425         1.11397
            1726            2091         1.06425         1.11397
            1742            2092     966.301E-03         1.01633
            1743            2092     966.301E-03         1.01633
            1726            2092     966.301E-03         1.01633
            1727            2092     966.301E-03         1.01633
            1743            2093     867.963E-03     917.718E-03
            1728            2093     867.963E-03     917.718E-03
            1727            2093     867.963E-03     917.718E-03
            1744            2093     867.963E-03     917.718E-03
            1728            2094     769.226E-03     819.217E-03
            1745            2094     769.226E-03     819.217E-03
            1744            2094     769.226E-03     819.217E-03
            1729            2094     769.226E-03     819.217E-03
            1729            2095     670.457E-03     720.256E-03
            1745            2095     670.457E-03     720.256E-03
            1730            2095     670.457E-03     720.256E-03
            1746            2095     670.457E-03     720.256E-03
            1731            2096     571.489E-03     621.415E-03
            1747            2096     571.489E-03     621.415E-03
            1746            2096     571.489E-03     621.415E-03
            1730            2096     571.489E-03     621.415E-03
            1731            2097     472.577E-03     522.439E-03
            1732            2097     472.577E-03     522.439E-03
            1748            2097     472.577E-03     522.439E-03
            1747            2097     472.577E-03     522.439E-03
            1733            2098     373.835E-03     423.491E-03
            1748            2098     373.835E-03     423.491E-03
            1749            2098     373.835E-03     423.491E-03
            1732            2098     373.835E-03     423.491E-03
            1734            2099     275.382E-03     324.775E-03
            1750            2099     275.382E-03     324.775E-03
            1749            2099     275.382E-03     324.775E-03
            1733            2099     275.382E-03     324.775E-03
            1750            2100     178.317E-03     226.877E-03
            1751            2100     178.317E-03     226.877E-03
            1735            2100     178.317E-03     226.877E-03
            1734            2100     178.317E-03     226.877E-03
            1751            2101     88.5572E-03     126.546E-03
            1752            2101     88.5572E-03     126.546E-03
            1735            2101     88.5572E-03     126.546E-03
            1736            2101     88.5572E-03     126.546E-03
            2369            2543     930.852E-03     992.041E-03
            2370            2543     930.852E-03     992.041E-03
            2386            2543     930.852E-03     992.041E-03
            2385            2543     930.852E-03     992.041E-03
            2387            2544     820.201E-03     889.301E-03
            2370            2544     820.201E-03     889.301E-03
            2386            2544     820.201E-03     889.301E-03
            2371            2544     820.201E-03     889.301E-03
            2371            2545     757.288E-03     827.142E-03
            2372            2545     757.288E-03     827.142E-03
            2388            2545     757.288E-03     827.142E-03
            2387            2545     757.288E-03     827.142E-03
            2372            2546     699.971E-03     768.892E-03
            2389            2546     699.971E-03     768.892E-03
            2373            2546     699.971E-03     768.892E-03
            2388            2546     699.971E-03     768.892E-03
            2389            2547     640.634E-03     709.279E-03
            2374            2547     640.634E-03     709.279E-03
            2373            2547     640.634E-03     709.279E-03
            2390            2547     640.634E-03     709.279E-03
            2375            2548     582.192E-03     651.067E-03
            2391            2548     582.192E-03     651.067E-03
            2374            2548     582.192E-03     651.067E-03
            2390            2548     582.192E-03     651.067E-03
            2392            2549     524.365E-03     592.462E-03
            2391            2549     524.365E-03     592.462E-03
            2375            2549     524.365E-03     592.462E-03
            2376            2549     524.365E-03     592.462E-03
            2376            2550     466.898E-03     534.833E-03
            2377            2550     466.898E-03     534.833E-03
            2392            2550     466.898E-03     534.833E-03
            2393            2550     466.898E-03     534.833E-03
            2378            2551     410.445E-03     477.341E-03
            2393            2551     410.445E-03     477.341E-03
            2394            2551     410.445E-03     477.341E-03
            2377            2551     410.445E-03     477.341E-03
            2378            2552     354.912E-03     420.920E-03
            2394            2552     354.912E-03     420.920E-03
            2395            2552     354.912E-03     420.920E-03
            2379            2552     354.912E-03     420.920E-03
            2396            2553     301.343E-03     365.383E-03
            2379            2553     301.343E-03     365.383E-03
            2380            2553     301.343E-03     365.383E-03
            2395            2553     301.343E-03     365.383E-03
            2380            2554     250.446E-03     311.774E-03
            2381            2554     250.446E-03     311.774E-03
            2396            2554     250.446E-03     311.774E-03
            2397            2554     250.446E-03     311.774E-03
            2398            2555     204.969E-03     260.647E-03
            2397            2555     204.969E-03     260.647E-03
            2382            2555     204.969E-03     260.647E-03
            2381            2555     204.969E-03     260.647E-03
            2383            2556     172.020E-03     216.988E-03
            2398            2556     172.020E-03     216.988E-03
            2399            2556     172.020E-03     216.988E-03
            2382            2556     172.020E-03     216.988E-03
            2399            2557     158.608E-03     180.709E-03
            2400            2557     158.608E-03     180.709E-03
            2383            2557     158.608E-03     180.709E-03
            2384            2557     158.608E-03     180.709E-03
            2385            2558     878.240E-03     833.338E-03
            2402            2558     878.240E-03     833.338E-03
            2401            2558     878.240E-03     833.338E-03
            2386            2558     878.240E-03     833.338E-03
            2403            2559     876.349E-03     840.492E-03
            2402            2559     876.349E-03     840.492E-03
            2386            2559     876.349E-03     840.492E-03
            2387            2559     876.349E-03     840.492E-03
            2388            2560     815.009E-03     779.564E-03
            2387            2560     815.009E-03     779.564E-03
            2403            2560     815.009E-03     779.564E-03
            2404            2560     815.009E-03     779.564E-03
            2388            2561     757.438E-03     721.180E-03
            2404            2561     757.438E-03     721.180E-03
            2389            2561     757.438E-03     721.180E-03
            2405            2561     757.438E-03     721.180E-03
            2406            2562     700.014E-03     664.863E-03
            2405            2562     700.014E-03     664.863E-03
            2389            2562     700.014E-03     664.863E-03
            2390            2562     700.014E-03     664.863E-03
            2390            2563     643.201E-03     607.983E-03
            2407            2563     643.201E-03     607.983E-03
            2406            2563     643.201E-03     607.983E-03
            2391            2563     643.201E-03     607.983E-03
            2408            2564     585.991E-03     551.627E-03
            2391            2564     585.991E-03     551.627E-03
            2407            2564     585.991E-03     551.627E-03
            2392            2564     585.991E-03     551.627E-03
            2408            2565     529.634E-03     495.601E-03
            2409            2565     529.634E-03     495.601E-03
            2392            2565     529.634E-03     495.601E-03
            2393            2565     529.634E-03     495.601E-03
            2410            2566     473.752E-03     440.774E-03
            2409            2566     473.752E-03     440.774E-03
            2393            2566     473.752E-03     440.774E-03
            2394            2566     473.752E-03     440.774E-03
            2411            2567     419.170E-03     387.215E-03
            2410            2567     419.170E-03     387.215E-03
            2395            2567     419.170E-03     387.215E-03
            2394            2567     419.170E-03     387.215E-03
            2411            2568     366.075E-03     335.991E-03
            2412            2568     366.075E-03     335.991E-03
            2396            2568     366.075E-03     335.991E-03
            2395            2568     366.075E-03     335.991E-03
            2413            2569     315.518E-03     288.061E-03
            2396            2569     315.518E-03     288.061E-03
            2412            2569     315.518E-03     288.061E-03
            2397            2569     315.518E-03     288.061E-03
            2413            2570     269.289E-03     244.907E-03
            2414            2570     269.289E-03     244.907E-03
            2397            2570     269.289E-03     244.907E-03
            2398            2570     269.289E-03     244.907E-03
            2415            2571     229.979E-03     212.657E-03
            2414            2571     229.979E-03     212.657E-03
            2399            2571     229.979E-03     212.657E-03
            2398            2571     229.979E-03     212.657E-03
            2415            2572     202.350E-03     196.417E-03
            2416            2572     202.350E-03     196.417E-03
            2399            2572     202.350E-03     196.417E-03
            2400            2572     202.350E-03     196.417E-03
            2402            2573     759.618E-03     775.720E-03
            2417            2573     759.618E-03     775.720E-03
            2418            2573     759.618E-03     775.720E-03
            2401            2573     759.618E-03     775.720E-03
            2418            2574     685.774E-03     677.343E-03
            2403            2574     685.774E-03     677.343E-03
            2402            2574     685.774E-03     677.343E-03
            2419            2574     685.774E-03     677.343E-03
            2403            2575     621.853E-03     608.100E-03
            2420            2575     621.853E-03     608.100E-03
            2404            2575     621.853E-03     608.100E-03
            2419            2575     621.853E-03     608.100E-03
            2421            2576     566.927E-03     554.265E-03
            2405            2576     566.927E-03     554.265E-03
            2404            2576     566.927E-03     554.265E-03
            2420            2576     566.927E-03     554.265E-03
            2421            2577     523.738E-03     511.182E-03
            2406            2577     523.738E-03     511.182E-03
            2422            2577     523.738E-03     511.182E-03
            2405            2577     523.738E-03     511.182E-03
            2406            2578     482.351E-03     469.616E-03
            2423            2578     482.351E-03     469.616E-03
            2422            2578     482.351E-03     469.616E-03
            2407            2578     482.351E-03     469.616E-03
            2407            2579     441.993E-03     429.521E-03
            2408            2579     441.993E-03     429.521E-03
            2424            2579     441.993E-03     429.521E-03
            2423            2579     441.993E-03     429.521E-03
            2408            2580     402.245E-03     389.522E-03
            2424            2580     402.245E-03     389.522E-03
            2409            2580     402.245E-03     389.522E-03
            2425            2580     402.245E-03     389.522E-03
            2409            2581     363.059E-03     350.482E-03
            2426            2581     363.059E-03     350.482E-03
            2410            2581     363.059E-03     350.482E-03
            2425            2581     363.059E-03     350.482E-03
            2427            2582     325.286E-03     312.454E-03
            2426            2582     325.286E-03     312.454E-03
            2411            2582     325.286E-03     312.454E-03
            2410            2582     325.286E-03     312.454E-03
            2411            2583     289.046E-03     276.149E-03
            2412            2583     289.046E-03     276.149E-03
            2428            2583     289.046E-03     276.149E-03
            2427            2583     289.046E-03     276.149E-03
            2412            2584     255.653E-03     242.779E-03
            2428            2584     255.653E-03     242.779E-03
            2413            2584     255.653E-03     242.779E-03
            2429            2584     255.653E-03     242.779E-03
            2430            2585     225.664E-03     213.253E-03
            2429            2585     225.664E-03     213.253E-03
            2414            2585     225.664E-03     213.253E-03
            2413            2585     225.664E-03     213.253E-03
            2415            2586     199.875E-03     192.425E-03
            2414            2586     199.875E-03     192.425E-03
            2431            2586     199.875E-03     192.425E-03
            2430            2586     199.875E-03     192.425E-03
            2416            2587     172.652E-03     179.512E-03
            2415            2587     172.652E-03     179.512E-03
            2431            2587     172.652E-03     179.512E-03
            2432            2587     172.652E-03     179.512E-03
            2433            2588     696.465E-03     743.258E-03
            2434            2588     696.465E-03     743.258E-03
            2418            2588     696.465E-03     743.258E-03
            2417            2588     696.465E-03     743.258E-03
            2418            2589     496.025E-03     551.313E-03
            2434            2589     496.025E-03     551.313E-03
            2419            2589     496.025E-03     551.313E-03
            2435            2589     496.025E-03     551.313E-03
            2435            2590     406.327E-03     460.725E-03
            2420            2590     406.327E-03     460.725E-03
            2419            2590     406.327E-03     460.725E-03
            2436            2590     406.327E-03     460.725E-03
            2421            2591     361.032E-03     414.268E-03
            2436            2591     361.032E-03     414.268E-03
            2420            2591     361.032E-03     414.268E-03
            2437            2591     361.032E-03     414.268E-03
            2438            2592     328.206E-03     380.926E-03
            2437            2592     328.206E-03     380.926E-03
            2421            2592     328.206E-03     380.926E-03
            2422            2592     328.206E-03     380.926E-03
            2438            2593     302.338E-03     353.998E-03
            2422            2593     302.338E-03     353.998E-03
            2423            2593     302.338E-03     353.998E-03
            2439            2593     302.338E-03     353.998E-03
            2423            2594     277.480E-03     328.019E-03
            2424            2594     277.480E-03     328.019E-03
            2440            2594     277.480E-03     328.019E-03
            2439            2594     277.480E-03     328.019E-03
            2424            2595     253.769E-03     302.987E-03
            2425            2595     253.769E-03     302.987E-03
            2441            2595     253.769E-03     302.987E-03
            2440            2595     253.769E-03     302.987E-03
            2426            2596     230.851E-03     278.122E-03
            2425            2596     230.851E-03     278.122E-03
            2441            2596     230.851E-03     278.122E-03
            2442            2596     230.851E-03     278.122E-03
            2427            2597     209.348E-03     254.069E-03
            2426            2597     209.348E-03     254.069E-03
            2442            2597     209.348E-03     254.069E-03
            2443            2597     209.348E-03     254.069E-03
            2428            2598     189.942E-03     230.841E-03
            2444            2598     189.942E-03     230.841E-03
            2443            2598     189.942E-03     230.841E-03
            2427            2598     189.942E-03     230.841E-03
            2428            2599     173.473E-03     208.947E-03
            2444            2599     173.473E-03     208.947E-03
            2429            2599     173.473E-03     208.947E-03
            2445            2599     173.473E-03     208.947E-03
            2430            2600     160.295E-03     189.122E-03
            2445            2600     160.295E-03     189.122E-03
            2429            2600     160.295E-03     189.122E-03
            2446            2600     160.295E-03     189.122E-03
            2430            2601     150.478E-03     173.494E-03
            2446            2601     150.478E-03     173.494E-03
            2447            2601     150.478E-03     173.494E-03
            2431            2601     150.478E-03     173.494E-03
            2432            2602     145.889E-03     162.762E-03
            2448            2602     145.889E-03     162.762E-03
            2447            2602     145.889E-03     162.762E-03
            2431            2602     145.889E-03     162.762E-03
            2449            2603     636.643E-03     640.412E-03
            2433            2603     636.643E-03     640.412E-03
            2450            2603     636.643E-03     640.412E-03
            2434            2603     636.643E-03     640.412E-03
            2451            2604     503.677E-03     528.022E-03
            2450            2604     503.677E-03     528.022E-03
            2435            2604     503.677E-03     528.022E-03
            2434            2604     503.677E-03     528.022E-03
            2451            2605     420.886E-03     456.134E-03
            2436            2605     420.886E-03     456.134E-03
            2452            2605     420.886E-03     456.134E-03
            2435            2605     420.886E-03     456.134E-03
            2436            2606     380.192E-03     416.709E-03
            2437            2606     380.192E-03     416.709E-03
            2453            2606     380.192E-03     416.709E-03
            2452            2606     380.192E-03     416.709E-03
            2438            2607     350.950E-03     385.655E-03
            2454            2607     350.950E-03     385.655E-03
            2437            2607     350.950E-03     385.655E-03
            2453            2607     350.950E-03     385.655E-03
            2454            2608     323.732E-03     357.389E-03
            2438            2608     323.732E-03     357.389E-03
            2439            2608     323.732E-03     357.389E-03
            2455            2608     323.732E-03     357.389E-03
            2455            2609     298.370E-03     330.852E-03
            2456            2609     298.370E-03     330.852E-03
            2439            2609     298.370E-03     330.852E-03
            2440            2609     298.370E-03     330.852E-03
            2440            2610     273.792E-03     305.139E-03
            2441            2610     273.792E-03     305.139E-03
            2456            2610     273.792E-03     305.139E-03
            2457            2610     273.792E-03     305.139E-03
            2458            2611     250.640E-03     280.586E-03
            2441            2611     250.640E-03     280.586E-03
            2442            2611     250.640E-03     280.586E-03
            2457            2611     250.640E-03     280.586E-03
            2458            2612     229.066E-03     257.089E-03
            2442            2612     229.066E-03     257.089E-03
            2459            2612     229.066E-03     257.089E-03
            2443            2612     229.066E-03     257.089E-03
            2459            2613     209.757E-03     235.309E-03
            2460            2613     209.757E-03     235.309E-03
            2443            2613     209.757E-03     235.309E-03
            2444            2613     209.757E-03     235.309E-03
            2460            2614     193.652E-03     215.023E-03
            2445            2614     193.652E-03     215.023E-03
            2461            2614     193.652E-03     215.023E-03
            2444            2614     193.652E-03     215.023E-03
            2446            2615     180.846E-03     197.081E-03
            2461            2615     180.846E-03     197.081E-03
            2462            2615     180.846E-03     197.081E-03
            2445            2615     180.846E-03     197.081E-03
            2446            2616     173.661E-03     181.650E-03
            2462            2616     173.661E-03     181.650E-03
            2447            2616     173.661E-03     181.650E-03
            2463            2616     173.661E-03     181.650E-03
            2464            2617     174.928E-03     165.429E-03
            2447            2617     174.928E-03     165.429E-03
            2448            2617     174.928E-03     165.429E-03
            2463            2617     174.928E-03     165.429E-03
            2450            2618     524.031E-03     537.346E-03
            2465            2618     524.031E-03     537.346E-03
            2466            2618     524.031E-03     537.346E-03
            2449            2618     524.031E-03     537.346E-03
            2467            2619     459.671E-03     474.140E-03
            2466            2619     459.671E-03     474.140E-03
            2450            2619     459.671E-03     474.140E-03
            2451            2619     459.671E-03     474.140E-03
            2467            2620     425.449E-03     444.479E-03
            2451            2620     425.449E-03     444.479E-03
            2452            2620     425.449E-03     444.479E-03
            2468            2620     425.449E-03     444.479E-03
            2469            2621     397.593E-03     416.443E-03
            2452            2621     397.593E-03     416.443E-03
            2468            2621     397.593E-03     416.443E-03
            2453            2621     397.593E-03     416.443E-03
            2470            2622     371.438E-03     388.537E-03
            2453            2622     371.438E-03     388.537E-03
            2469            2622     371.438E-03     388.537E-03
            2454            2622     371.438E-03     388.537E-03
            2454            2623     343.898E-03     359.821E-03
            2455            2623     343.898E-03     359.821E-03
            2471            2623     343.898E-03     359.821E-03
            2470            2623     343.898E-03     359.821E-03
            2471            2624     317.406E-03     332.605E-03
            2472            2624     317.406E-03     332.605E-03
            2455            2624     317.406E-03     332.605E-03
            2456            2624     317.406E-03     332.605E-03
            2456            2625     292.335E-03     306.747E-03
            2457            2625     292.335E-03     306.747E-03
            2473            2625     292.335E-03     306.747E-03
            2472            2625     292.335E-03     306.747E-03
            2458            2626     268.919E-03     282.580E-03
            2457            2626     268.919E-03     282.580E-03
            2474            2626     268.919E-03     282.580E-03
            2473            2626     268.919E-03     282.580E-03
            2459            2627     247.556E-03     260.296E-03
            2475            2627     247.556E-03     260.296E-03
            2458            2627     247.556E-03     260.296E-03
            2474            2627     247.556E-03     260.296E-03
            2460            2628     228.472E-03     239.949E-03
            2459            2628     228.472E-03     239.949E-03
            2475            2628     228.472E-03     239.949E-03
            2476            2628     228.472E-03     239.949E-03
            2460            2629     212.217E-03     222.274E-03
            2476            2629     212.217E-03     222.274E-03
            2477            2629     212.217E-03     222.274E-03
            2461            2629     212.217E-03     222.274E-03
            2462            2630     200.988E-03     206.039E-03
            2478            2630     200.988E-03     206.039E-03
            2461            2630     200.988E-03     206.039E-03
            2477            2630     200.988E-03     206.039E-03
            2478            2631     195.847E-03     189.044E-03
            2462            2631     195.847E-03     189.044E-03
            2479            2631     195.847E-03     189.044E-03
            2463            2631     195.847E-03     189.044E-03
            2480            2632     194.172E-03     175.906E-03
            2464            2632     194.172E-03     175.906E-03
            2463            2632     194.172E-03     175.906E-03
            2479            2632     194.172E-03     175.906E-03
            2481            2633     418.801E-03     419.618E-03
            2465            2633     418.801E-03     419.618E-03
            2466            2633     418.801E-03     419.618E-03
            2482            2633     418.801E-03     419.618E-03
            2467            2634     393.136E-03     405.381E-03
            2482            2634     393.136E-03     405.381E-03
            2466            2634     393.136E-03     405.381E-03
            2483            2634     393.136E-03     405.381E-03
            2483            2635     411.950E-03     417.235E-03
            2484            2635     411.950E-03     417.235E-03
            2468            2635     411.950E-03     417.235E-03
            2467            2635     411.950E-03     417.235E-03
            2468            2636     407.078E-03     406.575E-03
            2469            2636     407.078E-03     406.575E-03
            2485            2636     407.078E-03     406.575E-03
            2484            2636     407.078E-03     406.575E-03
            2485            2637     383.746E-03     382.758E-03
            2470            2637     383.746E-03     382.758E-03
            2486            2637     383.746E-03     382.758E-03
            2469            2637     383.746E-03     382.758E-03
            2487            2638     358.663E-03     356.961E-03
            2471            2638     358.663E-03     356.961E-03
            2486            2638     358.663E-03     356.961E-03
            2470            2638     358.663E-03     356.961E-03
            2471            2639     332.557E-03     330.762E-03
            2472            2639     332.557E-03     330.762E-03
            2488            2639     332.557E-03     330.762E-03
            2487            2639     332.557E-03     330.762E-03
            2489            2640     308.148E-03     306.371E-03
            2473            2640     308.148E-03     306.371E-03
            2472            2640     308.148E-03     306.371E-03
            2488            2640     308.148E-03     306.371E-03
            2473            2641     285.459E-03     283.738E-03
            2489            2641     285.459E-03     283.738E-03
            2490            2641     285.459E-03     283.738E-03
            2474            2641     285.459E-03     283.738E-03
            2474            2642     264.755E-03     263.245E-03
            2475            2642     264.755E-03     263.245E-03
            2491            2642     264.755E-03     263.245E-03
            2490            2642     264.755E-03     263.245E-03
            2475            2643     246.279E-03     245.092E-03
            2491            2643     246.279E-03     245.092E-03
            2492            2643     246.279E-03     245.092E-03
            2476            2643     246.279E-03     245.092E-03
            2492            2644     230.178E-03     229.680E-03
            2493            2644     230.178E-03     229.680E-03
            2477            2644     230.178E-03     229.680E-03
            2476            2644     230.178E-03     229.680E-03
            2478            2645     217.940E-03     217.092E-03
            2494            2645     217.940E-03     217.092E-03
            2493            2645     217.940E-03     217.092E-03
            2477            2645     217.940E-03     217.092E-03
            2479            2646     211.995E-03     204.507E-03
            2494            2646     211.995E-03     204.507E-03
            2495            2646     211.995E-03     204.507E-03
            2478            2646     211.995E-03     204.507E-03
            2495            2647     210.178E-03     191.790E-03
            2496            2647     210.178E-03     191.790E-03
            2480            2647     210.178E-03     191.790E-03
            2479            2647     210.178E-03     191.790E-03
            2481            2648     313.219E-03     309.118E-03
            2482            2648     313.219E-03     309.118E-03
            2497            2648     313.219E-03     309.118E-03
            2498            2648     313.219E-03     309.118E-03
            2482            2649     341.955E-03     333.874E-03
            2499            2649     341.955E-03     333.874E-03
            2483            2649     341.955E-03     333.874E-03
            2498            2649     341.955E-03     333.874E-03
            2500            2650     394.547E-03     377.048E-03
            2483            2650     394.547E-03     377.048E-03
            2499            2650     394.547E-03     377.048E-03
            2484            2650     394.547E-03     377.048E-03
            2484            2651     399.756E-03     379.782E-03
            2500            2651     399.756E-03     379.782E-03
            2485            2651     399.756E-03     379.782E-03
            2501            2651     399.756E-03     379.782E-03
            2485            2652     386.658E-03     366.315E-03
            2502            2652     386.658E-03     366.315E-03
            2501            2652     386.658E-03     366.315E-03
            2486            2652     386.658E-03     366.315E-03
            2487            2653     365.307E-03     345.995E-03
            2503            2653     365.307E-03     345.995E-03
            2502            2653     365.307E-03     345.995E-03
            2486            2653     365.307E-03     345.995E-03
            2487            2654     343.136E-03     324.701E-03
            2488            2654     343.136E-03     324.701E-03
            2504            2654     343.136E-03     324.701E-03
            2503            2654     343.136E-03     324.701E-03
            2504            2655     321.057E-03     303.730E-03
            2505            2655     321.057E-03     303.730E-03
            2489            2655     321.057E-03     303.730E-03
            2488            2655     321.057E-03     303.730E-03
            2489            2656     300.363E-03     284.236E-03
            2505            2656     300.363E-03     284.236E-03
            2506            2656     300.363E-03     284.236E-03
            2490            2656     300.363E-03     284.236E-03
            2490            2657     281.123E-03     266.415E-03
            2506            2657     281.123E-03     266.415E-03
            2491            2657     281.123E-03     266.415E-03
            2507            2657     281.123E-03     266.415E-03
            2491            2658     263.578E-03     250.884E-03
            2508            2658     263.578E-03     250.884E-03
            2492            2658     263.578E-03     250.884E-03
            2507            2658     263.578E-03     250.884E-03
            2508            2659     248.151E-03     237.706E-03
            2492            2659     248.151E-03     237.706E-03
            2493            2659     248.151E-03     237.706E-03
            2509            2659     248.151E-03     237.706E-03
            2494            2660     233.806E-03     228.710E-03
            2510            2660     233.806E-03     228.710E-03
            2509            2660     233.806E-03     228.710E-03
            2493            2660     233.806E-03     228.710E-03
            2494            2661     222.998E-03     224.854E-03
            2495            2661     222.998E-03     224.854E-03
            2511            2661     222.998E-03     224.854E-03
            2510            2661     222.998E-03     224.854E-03
            2496            2662     222.829E-03     217.651E-03
            2511            2662     222.829E-03     217.651E-03
            2495            2662     222.829E-03     217.651E-03
            2512            2662     222.829E-03     217.651E-03
            2513            2663     240.016E-03     230.203E-03
            2514            2663     240.016E-03     230.203E-03
            2497            2663     240.016E-03     230.203E-03
            2498            2663     240.016E-03     230.203E-03
            2498            2664     307.691E-03     262.105E-03
            2515            2664     307.691E-03     262.105E-03
            2499            2664     307.691E-03     262.105E-03
            2514            2664     307.691E-03     262.105E-03
            2499            2665     365.403E-03     319.756E-03
            2515            2665     365.403E-03     319.756E-03
            2500            2665     365.403E-03     319.756E-03
            2516            2665     365.403E-03     319.756E-03
            2501            2666     380.971E-03     339.188E-03
            2500            2666     380.971E-03     339.188E-03
            2516            2666     380.971E-03     339.188E-03
            2517            2666     380.971E-03     339.188E-03
            2502            2667     378.721E-03     339.692E-03
            2501            2667     378.721E-03     339.692E-03
            2517            2667     378.721E-03     339.692E-03
            2518            2667     378.721E-03     339.692E-03
            2519            2668     366.594E-03     329.875E-03
            2518            2668     366.594E-03     329.875E-03
            2502            2668     366.594E-03     329.875E-03
            2503            2668     366.594E-03     329.875E-03
            2520            2669     350.217E-03     316.072E-03
            2503            2669     350.217E-03     316.072E-03
            2504            2669     350.217E-03     316.072E-03
            2519            2669     350.217E-03     316.072E-03
            2504            2670     332.557E-03     300.637E-03
            2505            2670     332.557E-03     300.637E-03
            2520            2670     332.557E-03     300.637E-03
            2521            2670     332.557E-03     300.637E-03
            2522            2671     314.579E-03     285.293E-03
            2506            2671     314.579E-03     285.293E-03
            2505            2671     314.579E-03     285.293E-03
            2521            2671     314.579E-03     285.293E-03
            2507            2672     297.349E-03     270.883E-03
            2522            2672     297.349E-03     270.883E-03
            2523            2672     297.349E-03     270.883E-03
            2506            2672     297.349E-03     270.883E-03
            2508            2673     281.061E-03     257.940E-03
            2524            2673     281.061E-03     257.940E-03
            2507            2673     281.061E-03     257.940E-03
            2523            2673     281.061E-03     257.940E-03
            2525            2674     266.191E-03     247.339E-03
            2524            2674     266.191E-03     247.339E-03
            2508            2674     266.191E-03     247.339E-03
            2509            2674     266.191E-03     247.339E-03
            2510            2675     252.399E-03     239.684E-03
            2525            2675     252.399E-03     239.684E-03
            2509            2675     252.399E-03     239.684E-03
            2526            2675     252.399E-03     239.684E-03
            2511            2676     238.412E-03     238.508E-03
            2526            2676     238.412E-03     238.508E-03
            2510            2676     238.412E-03     238.508E-03
            2527            2676     238.412E-03     238.508E-03
            2512            2677     226.618E-03     245.580E-03
            2527            2677     226.618E-03     245.580E-03
            2528            2677     226.618E-03     245.580E-03
            2511            2677     226.618E-03     245.580E-03
            2513            2678     132.461E-03     126.266E-03
            2530            2678     132.461E-03     126.266E-03
            2529            2678     132.461E-03     126.266E-03
            2514            2678     132.461E-03     126.266E-03
            2515            2679     169.396E-03     135.613E-03
            2530            2679     169.396E-03     135.613E-03
            2514            2679     169.396E-03     135.613E-03
            2531            2679     169.396E-03     135.613E-03
            2532            2680     193.130E-03     164.261E-03
            2515            2680     193.130E-03     164.261E-03
            2516            2680     193.130E-03     164.261E-03
            2531            2680     193.130E-03     164.261E-03
            2533            2681     204.344E-03     178.537E-03
            2516            2681     204.344E-03     178.537E-03
            2532            2681     204.344E-03     178.537E-03
            2517            2681     204.344E-03     178.537E-03
            2518            2682     204.208E-03     180.821E-03
            2533            2682     204.208E-03     180.821E-03
            2517            2682     204.208E-03     180.821E-03
            2534            2682     204.208E-03     180.821E-03
            2518            2683     199.794E-03     178.098E-03
            2535            2683     199.794E-03     178.098E-03
            2534            2683     199.794E-03     178.098E-03
            2519            2683     199.794E-03     178.098E-03
            2535            2684     192.013E-03     171.926E-03
            2520            2684     192.013E-03     171.926E-03
            2519            2684     192.013E-03     171.926E-03
            2536            2684     192.013E-03     171.926E-03
            2520            2685     183.103E-03     164.522E-03
            2521            2685     183.103E-03     164.522E-03
            2537            2685     183.103E-03     164.522E-03
            2536            2685     183.103E-03     164.522E-03
            2538            2686     173.664E-03     156.804E-03
            2522            2686     173.664E-03     156.804E-03
            2537            2686     173.664E-03     156.804E-03
            2521            2686     173.664E-03     156.804E-03
            2539            2687     164.374E-03     149.291E-03
            2522            2687     164.374E-03     149.291E-03
            2538            2687     164.374E-03     149.291E-03
            2523            2687     164.374E-03     149.291E-03
            2540            2688     155.441E-03     142.434E-03
            2539            2688     155.441E-03     142.434E-03
            2524            2688     155.441E-03     142.434E-03
            2523            2688     155.441E-03     142.434E-03
            2524            2689     147.269E-03     136.846E-03
            2541            2689     147.269E-03     136.846E-03
            2525            2689     147.269E-03     136.846E-03
            2540            2689     147.269E-03     136.846E-03
            2541            2690     139.753E-03     132.115E-03
            2542            2690     139.753E-03     132.115E-03
            2526            2690     139.753E-03     132.115E-03
            2525            2690     139.753E-03     132.115E-03
            2527            2691     132.848E-03     130.714E-03
            2526            2691     132.848E-03     130.714E-03
            2542            2691     132.848E-03     130.714E-03
            2543            2691     132.848E-03     130.714E-03
            2544            2692     121.601E-03     135.114E-03
            2527            2692     121.601E-03     135.114E-03
            2528            2692     121.601E-03     135.114E-03
            2543            2692     121.601E-03     135.114E-03
            2658            2768         1.41006         1.43990
            2641            2768         1.41006         1.43990
            2657            2768         1.41006         1.43990
            2642            2768         1.41006         1.43990
            2642            2769         1.32517         1.35072
            2643            2769         1.32517         1.35072
            2659            2769         1.32517         1.35072
            2658            2769         1.32517         1.35072
            2659            2770         1.23017         1.25565
            2644            2770         1.23017         1.25565
            2660            2770         1.23017         1.25565
            2643            2770         1.23017         1.25565
            2661            2771         1.13551         1.16355
            2660            2771         1.13551         1.16355
            2645            2771         1.13551         1.16355
            2644            2771         1.13551         1.16355
            2646            2772         1.04285         1.06816
            2661            2772         1.04285         1.06816
            2662            2772         1.04285         1.06816
            2645            2772         1.04285         1.06816
            2646            2773     948.008E-03     975.684E-03
            2662            2773     948.008E-03     975.684E-03
            2663            2773     948.008E-03     975.684E-03
            2647            2773     948.008E-03     975.684E-03
            2664            2774     855.410E-03     881.511E-03
            2648            2774     855.410E-03     881.511E-03
            2647            2774     855.410E-03     881.511E-03
            2663            2774     855.410E-03     881.511E-03
            2665            2775     761.874E-03     789.124E-03
            2648            2775     761.874E-03     789.124E-03
            2664            2775     761.874E-03     789.124E-03
            2649            2775     761.874E-03     789.124E-03
            2649            2776     669.691E-03     696.453E-03
            2665            2776     669.691E-03     696.453E-03
            2650            2776     669.691E-03     696.453E-03
            2666            2776     669.691E-03     696.453E-03
            2667            2777     577.825E-03     605.070E-03
            2650            2777     577.825E-03     605.070E-03
            2666            2777     577.825E-03     605.070E-03
            2651            2777     577.825E-03     605.070E-03
            2668            2778     487.383E-03     514.742E-03
            2667            2778     487.383E-03     514.742E-03
            2652            2778     487.383E-03     514.742E-03
            2651            2778     487.383E-03     514.742E-03
            2653            2779     398.949E-03     426.667E-03
            2669            2779     398.949E-03     426.667E-03
            2652            2779     398.949E-03     426.667E-03
            2668            2779     398.949E-03     426.667E-03
            2670            2780     314.730E-03     342.481E-03
            2653            2780     314.730E-03     342.481E-03
            2654            2780     314.730E-03     342.481E-03
            2669            2780     314.730E-03     342.481E-03
            2654            2781     240.003E-03     266.255E-03
            2671            2781     240.003E-03     266.255E-03
            2670            2781     240.003E-03     266.255E-03
            2655            2781     240.003E-03     266.255E-03
            2672            2782     189.426E-03     205.837E-03
            2671            2782     189.426E-03     205.837E-03
            2656            2782     189.426E-03     205.837E-03
            2655            2782     189.426E-03     205.837E-03
            2658            2783         1.33075         1.34953
            2657            2783         1.33075         1.34953
            2674            2783         1.33075         1.34953
            2673            2783         1.33075         1.34953
            2659            2784         1.23059         1.23905
            2674            2784         1.23059         1.23905
            2675            2784         1.23059         1.23905
            2658            2784         1.23059         1.23905
            2675            2785         1.13850         1.14728
            2676            2785         1.13850         1.14728
            2659            2785         1.13850         1.14728
            2660            2785         1.13850         1.14728
            2677            2786         1.05430         1.06559
            2676            2786         1.05430         1.06559
            2661            2786         1.05430         1.06559
            2660            2786         1.05430         1.06559
            2661            2787     968.868E-03     978.576E-03
            2662            2787     968.868E-03     978.576E-03
            2678            2787     968.868E-03     978.576E-03
            2677            2787     968.868E-03     978.576E-03
            2678            2788     881.780E-03     893.278E-03
            2663            2788     881.780E-03     893.278E-03
            2662            2788     881.780E-03     893.278E-03
            2679            2788     881.780E-03     893.278E-03
            2663            2789     796.446E-03     806.792E-03
            2680            2789     796.446E-03     806.792E-03
            2679            2789     796.446E-03     806.792E-03
            2664            2789     796.446E-03     806.792E-03
            2664            2790     710.252E-03     721.729E-03
            2665            2790     710.252E-03     721.729E-03
            2681            2790     710.252E-03     721.729E-03
            2680            2790     710.252E-03     721.729E-03
            2681            2791     625.337E-03     636.441E-03
            2666            2791     625.337E-03     636.441E-03
            2682            2791     625.337E-03     636.441E-03
            2665            2791     625.337E-03     636.441E-03
            2682            2792     540.635E-03     552.427E-03
            2666            2792     540.635E-03     552.427E-03
            2667            2792     540.635E-03     552.427E-03
            2683            2792     540.635E-03     552.427E-03
            2667            2793     457.402E-03     469.324E-03
            2684            2793     457.402E-03     469.324E-03
            2668            2793     457.402E-03     469.324E-03
            2683            2793     457.402E-03     469.324E-03
            2685            2794     375.804E-03     388.576E-03
            2669            2794     375.804E-03     388.576E-03
            2668            2794     375.804E-03     388.576E-03
            2684            2794     375.804E-03     388.576E-03
            2670            2795     297.723E-03     312.141E-03
            2686            2795     297.723E-03     312.141E-03
            2685            2795     297.723E-03     312.141E-03
            2669            2795     297.723E-03     312.141E-03
            2686            2796     229.962E-03     243.146E-03
            2671            2796     229.962E-03     243.146E-03
            2670            2796     229.962E-03     243.146E-03
            2687            2796     229.962E-03     243.146E-03
            2688            2797     176.181E-03     179.890E-03
            2672            2797     176.181E-03     179.890E-03
            2687            2797     176.181E-03     179.890E-03
            2671            2797     176.181E-03     179.890E-03
            2674            2798         1.23863         1.29966
            2690            2798         1.23863         1.29966
            2673            2798         1.23863         1.29966
            2689            2798         1.23863         1.29966
            2674            2799         1.10089         1.17118
            2691            2799         1.10089         1.17118
            2675            2799         1.10089         1.17118
            2690            2799         1.10089         1.17118
            2676            2800         1.01442         1.08555
            2675            2800         1.01442         1.08555
            2692            2800         1.01442         1.08555
            2691            2800         1.01442         1.08555
            2693            2801     936.757E-03         1.00704
            2676            2801     936.757E-03         1.00704
            2692            2801     936.757E-03         1.00704
            2677            2801     936.757E-03         1.00704
            2677            2802     857.022E-03     926.968E-03
            2694            2802     857.022E-03     926.968E-03
            2678            2802     857.022E-03     926.968E-03
            2693            2802     857.022E-03     926.968E-03
            2694            2803     777.853E-03     848.231E-03
            2679            2803     777.853E-03     848.231E-03
            2678            2803     777.853E-03     848.231E-03
            2695            2803     777.853E-03     848.231E-03
            2695            2804     699.207E-03     769.001E-03
            2696            2804     699.207E-03     769.001E-03
            2679            2804     699.207E-03     769.001E-03
            2680            2804     699.207E-03     769.001E-03
            2696            2805     620.727E-03     690.631E-03
            2681            2805     620.727E-03     690.631E-03
            2697            2805     620.727E-03     690.631E-03
            2680            2805     620.727E-03     690.631E-03
            2681            2806     543.046E-03     612.285E-03
            2697            2806     543.046E-03     612.285E-03
            2682            2806     543.046E-03     612.285E-03
            2698            2806     543.046E-03     612.285E-03
            2682            2807     465.931E-03     534.830E-03
            2699            2807     465.931E-03     534.830E-03
            2698            2807     465.931E-03     534.830E-03
            2683            2807     465.931E-03     534.830E-03
            2683            2808     390.238E-03     458.070E-03
            2700            2808     390.238E-03     458.070E-03
            2684            2808     390.238E-03     458.070E-03
            2699            2808     390.238E-03     458.070E-03
            2685            2809     316.471E-03     382.940E-03
            2684            2809     316.471E-03     382.940E-03
            2701            2809     316.471E-03     382.940E-03
            2700            2809     316.471E-03     382.940E-03
            2686            2810     247.420E-03     310.198E-03
            2702            2810     247.420E-03     310.198E-03
            2685            2810     247.420E-03     310.198E-03
            2701            2810     247.420E-03     310.198E-03
            2703            2811     190.839E-03     244.840E-03
            2702            2811     190.839E-03     244.840E-03
            2686            2811     190.839E-03     244.840E-03
            2687            2811     190.839E-03     244.840E-03
            2704            2812     159.252E-03     188.570E-03
            2687            2812     159.252E-03     188.570E-03
            2688            2812     159.252E-03     188.570E-03
            2703            2812     159.252E-03     188.570E-03
            2705            2813         1.16844         1.13270
            2689            2813         1.16844         1.13270
            2690            2813         1.16844         1.13270
            2706            2813         1.16844         1.13270
            2690            2814         1.14590         1.12035
            2706            2814         1.14590         1.12035
            2691            2814         1.14590         1.12035
            2707            2814         1.14590         1.12035
            2691            2815         1.06763         1.04235
            2707            2815         1.06763         1.04235
            2708            2815         1.06763         1.04235
            2692            2815         1.06763         1.04235
            2708            2816     990.232E-03     963.964E-03
            2692            2816     990.232E-03     963.964E-03
            2693            2816     990.232E-03     963.964E-03
            2709            2816     990.232E-03     963.964E-03
            2710            2817     912.500E-03     887.089E-03
            2709            2817     912.500E-03     887.089E-03
            2693            2817     912.500E-03     887.089E-03
            2694            2817     912.500E-03     887.089E-03
            2695            2818     835.602E-03     810.001E-03
            2710            2818     835.602E-03     810.001E-03
            2694            2818     835.602E-03     810.001E-03
            2711            2818     835.602E-03     810.001E-03
            2711            2819     758.150E-03     733.224E-03
            2712            2819     758.150E-03     733.224E-03
            2696            2819     758.150E-03     733.224E-03
            2695            2819     758.150E-03     733.224E-03
            2696            2820     681.433E-03     656.559E-03
            2712            2820     681.433E-03     656.559E-03
            2713            2820     681.433E-03     656.559E-03
            2697            2820     681.433E-03     656.559E-03
            2697            2821     605.074E-03     580.908E-03
            2713            2821     605.074E-03     580.908E-03
            2698            2821     605.074E-03     580.908E-03
            2714            2821     605.074E-03     580.908E-03
            2698            2822     529.941E-03     506.317E-03
            2699            2822     529.941E-03     506.317E-03
            2715            2822     529.941E-03     506.317E-03
            2714            2822     529.941E-03     506.317E-03
            2715            2823     456.238E-03     433.844E-03
            2699            2823     456.238E-03     433.844E-03
            2700            2823     456.238E-03     433.844E-03
            2716            2823     456.238E-03     433.844E-03
            2700            2824     385.244E-03     364.364E-03
            2716            2824     385.244E-03     364.364E-03
            2717            2824     385.244E-03     364.364E-03
            2701            2824     385.244E-03     364.364E-03
            2717            2825     319.108E-03     299.806E-03
            2701            2825     319.108E-03     299.806E-03
            2702            2825     319.108E-03     299.806E-03
            2718            2825     319.108E-03     299.806E-03
            2718            2826     260.931E-03     247.482E-03
            2702            2826     260.931E-03     247.482E-03
            2719            2826     260.931E-03     247.482E-03
            2703            2826     260.931E-03     247.482E-03
            2720            2827     218.077E-03     216.403E-03
            2704            2827     218.077E-03     216.403E-03
            2703            2827     218.077E-03     216.403E-03
            2719            2827     218.077E-03     216.403E-03
            2916            2952     9.49033E-15     9.43779E-15
            2931            2952     9.49033E-15     9.43779E-15
            2932            2952     9.49033E-15     9.43779E-15
            2915            2952     9.49033E-15     9.43779E-15
            2917            2953     19.2615E-15     19.2987E-15
            2932            2953     19.2615E-15     19.2987E-15
            2933            2953     19.2615E-15     19.2987E-15
            2916            2953     19.2615E-15     19.2987E-15
            2918            2954     20.5954E-15     20.5837E-15
            2934            2954     20.5954E-15     20.5837E-15
            2933            2954     20.5954E-15     20.5837E-15
            2917            2954     20.5954E-15     20.5837E-15
            2919            2955     11.6580E-15     12.8984E-15
            2918            2955     11.6580E-15     12.8984E-15
            2934            2955     11.6580E-15     12.8984E-15
            2935            2955     11.6580E-15     12.8984E-15
            2936            2956     6.43134E-15     7.47692E-15
            2919            2956     6.43134E-15     7.47692E-15
            2920            2956     6.43134E-15     7.47692E-15
            2935            2956     6.43134E-15     7.47692E-15
            2920            2957     7.71553E-15     7.90790E-15
            2921            2957     7.71553E-15     7.90790E-15
            2937            2957     7.71553E-15     7.90790E-15
            2936            2957     7.71553E-15     7.90790E-15
            2937            2958     13.5651E-15     14.0412E-15
            2921            2958     13.5651E-15     14.0412E-15
            2922            2958     13.5651E-15     14.0412E-15
            2938            2958     13.5651E-15     14.0412E-15
            2938            2959     14.2961E-15     15.2007E-15
            2922            2959     14.2961E-15     15.2007E-15
            2923            2959     14.2961E-15     15.2007E-15
            2939            2959     14.2961E-15     15.2007E-15
            2924            2960     11.2747E-15     12.7693E-15
            2923            2960     11.2747E-15     12.7693E-15
            2939            2960     11.2747E-15     12.7693E-15
            2940            2960     11.2747E-15     12.7693E-15
            2925            2961     10.5368E-15     11.0770E-15
            2924            2961     10.5368E-15     11.0770E-15
            2940            2961     10.5368E-15     11.0770E-15
            2941            2961     10.5368E-15     11.0770E-15
            2941            2962     9.56327E-15     8.87416E-15
            2926            2962     9.56327E-15     8.87416E-15
            2942            2962     9.56327E-15     8.87416E-15
            2925            2962     9.56327E-15     8.87416E-15
            2926            2963     8.33373E-15     9.48609E-15
            2927            2963     8.33373E-15     9.48609E-15
            2942            2963     8.33373E-15     9.48609E-15
            2943            2963     8.33373E-15     9.48609E-15
            2927            2964     12.1759E-15     11.3405E-15
            2943            2964     12.1759E-15     11.3405E-15
            2928            2964     12.1759E-15     11.3405E-15
            2944            2964     12.1759E-15     11.3405E-15
            2944            2965     14.6440E-15     11.2070E-15
            2929            2965     14.6440E-15     11.2070E-15
            2945            2965     14.6440E-15     11.2070E-15
            2928            2965     14.6440E-15     11.2070E-15
            2945            2966     11.6628E-15     10.6587E-15
            2929            2966     11.6628E-15     10.6587E-15
            2946            2966     11.6628E-15     10.6587E-15
            2930            2966     11.6628E-15     10.6587E-15
            2932            2967     9.47130E-15     9.82468E-15
            2948            2967     9.47130E-15     9.82468E-15
            2931            2967     9.47130E-15     9.82468E-15
            2947            2967     9.47130E-15     9.82468E-15
            2949            2968     15.9542E-15     16.0472E-15
            2948            2968     15.9542E-15     16.0472E-15
            2932            2968     15.9542E-15     16.0472E-15
            2933            2968     15.9542E-15     16.0472E-15
            2933            2969     15.2024E-15     14.9671E-15
            2949            2969     15.2024E-15     14.9671E-15
            2950            2969     15.2024E-15     14.9671E-15
            2934            2969     15.2024E-15     14.9671E-15
            2935            2970     7.38512E-15     7.91431E-15
            2934            2970     7.38512E-15     7.91431E-15
            2950            2970     7.38512E-15     7.91431E-15
            2951            2970     7.38512E-15     7.91431E-15
            2935            2971     6.13841E-15     6.65758E-15
            2951            2971     6.13841E-15     6.65758E-15
            2936            2971     6.13841E-15     6.65758E-15
            2952            2971     6.13841E-15     6.65758E-15
            2936            2972     5.89273E-15     5.60337E-15
            2953            2972     5.89273E-15     5.60337E-15
            2937            2972     5.89273E-15     5.60337E-15
            2952            2972     5.89273E-15     5.60337E-15
            2937            2973     12.6255E-15     12.3311E-15
            2953            2973     12.6255E-15     12.3311E-15
            2954            2973     12.6255E-15     12.3311E-15
            2938            2973     12.6255E-15     12.3311E-15
            2938            2974     18.7196E-15     18.4839E-15
            2954            2974     18.7196E-15     18.4839E-15
            2939            2974     18.7196E-15     18.4839E-15
            2955            2974     18.7196E-15     18.4839E-15
            2939            2975     12.1241E-15     12.8929E-15
            2940            2975     12.1241E-15     12.8929E-15
            2956            2975     12.1241E-15     12.8929E-15
            2955            2975     12.1241E-15     12.8929E-15
            2941            2976     8.15751E-15     9.08640E-15
            2956            2976     8.15751E-15     9.08640E-15
            2957            2976     8.15751E-15     9.08640E-15
            2940            2976     8.15751E-15     9.08640E-15
            2942            2977     11.4343E-15     11.1584E-15
            2941            2977     11.4343E-15     11.1584E-15
            2958            2977     11.4343E-15     11.1584E-15
            2957            2977     11.4343E-15     11.1584E-15
            2942            2978     11.0078E-15     14.1969E-15
            2959            2978     11.0078E-15     14.1969E-15
            2943            2978     11.0078E-15     14.1969E-15
            2958            2978     11.0078E-15     14.1969E-15
            2959            2979     14.9571E-15     18.4204E-15
            2943            2979     14.9571E-15     18.4204E-15
            2960            2979     14.9571E-15     18.4204E-15
            2944            2979     14.9571E-15     18.4204E-15
            2961            2980     15.7179E-15     13.5379E-15
            2945            2980     15.7179E-15     13.5379E-15
            2960            2980     15.7179E-15     13.5379E-15
            2944            2980     15.7179E-15     13.5379E-15
            2961            2981     12.7169E-15     10.1048E-15
            2945            2981     12.7169E-15     10.1048E-15
            2962            2981     12.7169E-15     10.1048E-15
            2946            2981     12.7169E-15     10.1048E-15
            2948            2982     10.5814E-15     10.7216E-15
            2963            2982     10.5814E-15     10.7216E-15
            2947            2982     10.5814E-15     10.7216E-15
            2964            2982     10.5814E-15     10.7216E-15
            2949            2983     9.99867E-15     9.68535E-15
            2964            2983     9.99867E-15     9.68535E-15
            2965            2983     9.99867E-15     9.68535E-15
            2948            2983     9.99867E-15     9.68535E-15
            2949            2984     12.6377E-15     11.7235E-15
            2965            2984     12.6377E-15     11.7235E-15
            2966            2984     12.6377E-15     11.7235E-15
            2950            2984     12.6377E-15     11.7235E-15
            2951            2985     12.2646E-15     11.0296E-15
            2966            2985     12.2646E-15     11.0296E-15
            2967            2985     12.2646E-15     11.0296E-15
            2950            2985     12.2646E-15     11.0296E-15
            2967            2986     7.99249E-15     7.74210E-15
            2968            2986     7.99249E-15     7.74210E-15
            2951            2986     7.99249E-15     7.74210E-15
            2952            2986     7.99249E-15     7.74210E-15
            2953            2987     8.54130E-15     9.03611E-15
            2969            2987     8.54130E-15     9.03611E-15
            2968            2987     8.54130E-15     9.03611E-15
            2952            2987     8.54130E-15     9.03611E-15
            2969            2988     12.6412E-15     12.7387E-15
            2970            2988     12.6412E-15     12.7387E-15
            2953            2988     12.6412E-15     12.7387E-15
            2954            2988     12.6412E-15     12.7387E-15
            2954            2989     15.9489E-15     15.0354E-15
            2970            2989     15.9489E-15     15.0354E-15
            2955            2989     15.9489E-15     15.0354E-15
            2971            2989     15.9489E-15     15.0354E-15
            2955            2990     12.2324E-15     10.3748E-15
            2956            2990     12.2324E-15     10.3748E-15
            2972            2990     12.2324E-15     10.3748E-15
            2971            2990     12.2324E-15     10.3748E-15
            2972            2991     9.34482E-15     7.77038E-15
            2973            2991     9.34482E-15     7.77038E-15
            2956            2991     9.34482E-15     7.77038E-15
            2957            2991     9.34482E-15     7.77038E-15
            2974            2992     10.6897E-15     11.0864E-15
            2957            2992     10.6897E-15     11.0864E-15
            2958            2992     10.6897E-15     11.0864E-15
            2973            2992     10.6897E-15     11.0864E-15
            2974            2993     10.8595E-15     12.1054E-15
            2958            2993     10.8595E-15     12.1054E-15
            2975            2993     10.8595E-15     12.1054E-15
            2959            2993     10.8595E-15     12.1054E-15
            2959            2994     13.1302E-15     13.7679E-15
            2976            2994     13.1302E-15     13.7679E-15
            2960            2994     13.1302E-15     13.7679E-15
            2975            2994     13.1302E-15     13.7679E-15
            2960            2995     12.5821E-15     12.3071E-15
            2976            2995     12.5821E-15     12.3071E-15
            2977            2995     12.5821E-15     12.3071E-15
            2961            2995     12.5821E-15     12.3071E-15
            2977            2996     12.6588E-15     12.9369E-15
            2961            2996     12.6588E-15     12.9369E-15
            2962            2996     12.6588E-15     12.9369E-15
            2978            2996     12.6588E-15     12.9369E-15
            2980            2997     7.28279E-15     7.62461E-15
            2964            2997     7.28279E-15     7.62461E-15
            2979            2997     7.28279E-15     7.62461E-15
            2963            2997     7.28279E-15     7.62461E-15
            2981            2998     7.55532E-15     7.88252E-15
            2980            2998     7.55532E-15     7.88252E-15
            2964            2998     7.55532E-15     7.88252E-15
            2965            2998     7.55532E-15     7.88252E-15
            2981            2999     10.5501E-15     9.67447E-15
            2966            2999     10.5501E-15     9.67447E-15
            2965            2999     10.5501E-15     9.67447E-15
            2982            2999     10.5501E-15     9.67447E-15
            2967            3000     14.3844E-15     13.2367E-15
            2982            3000     14.3844E-15     13.2367E-15
            2983            3000     14.3844E-15     13.2367E-15
            2966            3000     14.3844E-15     13.2367E-15
            2983            3001     11.5435E-15     12.0805E-15
            2984            3001     11.5435E-15     12.0805E-15
            2967            3001     11.5435E-15     12.0805E-15
            2968            3001     11.5435E-15     12.0805E-15
            2969            3002     11.5450E-15     12.1006E-15
            2968            3002     11.5450E-15     12.1006E-15
            2984            3002     11.5450E-15     12.1006E-15
            2985            3002     11.5450E-15     12.1006E-15
            2985            3003     11.0372E-15     11.2744E-15
            2969            3003     11.0372E-15     11.2744E-15
            2986            3003     11.0372E-15     11.2744E-15
            2970            3003     11.0372E-15     11.2744E-15
            2970            3004     10.3856E-15     9.99589E-15
            2987            3004     10.3856E-15     9.99589E-15
            2986            3004     10.3856E-15     9.99589E-15
            2971            3004     10.3856E-15     9.99589E-15
            2987            3005     10.1835E-15     8.71833E-15
            2971            3005     10.1835E-15     8.71833E-15
            2972            3005     10.1835E-15     8.71833E-15
            2988            3005     10.1835E-15     8.71833E-15
            2988            3006     11.5369E-15     10.2157E-15
            2973            3006     11.5369E-15     10.2157E-15
            2972            3006     11.5369E-15     10.2157E-15
            2989            3006     11.5369E-15     10.2157E-15
            2990            3007     12.5614E-15     12.2202E-15
            2989            3007     12.5614E-15     12.2202E-15
            2974            3007     12.5614E-15     12.2202E-15
            2973            3007     12.5614E-15     12.2202E-15
            2974            3008     11.0806E-15     11.8975E-15
            2990            3008     11.0806E-15     11.8975E-15
            2975            3008     11.0806E-15     11.8975E-15
            2991            3008     11.0806E-15     11.8975E-15
            2976            3009     7.39622E-15     9.10531E-15
            2992            3009     7.39622E-15     9.10531E-15
            2975            3009     7.39622E-15     9.10531E-15
            2991            3009     7.39622E-15     9.10531E-15
            2976            3010     6.98592E-15     8.91858E-15
            2993            3010     6.98592E-15     8.91858E-15
            2992            3010     6.98592E-15     8.91858E-15
            2977            3010     6.98592E-15     8.91858E-15
            2993            3011     12.2782E-15     13.8214E-15
            2977            3011     12.2782E-15     13.8214E-15
            2994            3011     12.2782E-15     13.8214E-15
            2978            3011     12.2782E-15     13.8214E-15
            2980            3012     5.77684E-15     6.59934E-15
            2995            3012     5.77684E-15     6.59934E-15
            2979            3012     5.77684E-15     6.59934E-15
            2996            3012     5.77684E-15     6.59934E-15
            2997            3013     8.60889E-15     9.51983E-15
            2996            3013     8.60889E-15     9.51983E-15
            2980            3013     8.60889E-15     9.51983E-15
            2981            3013     8.60889E-15     9.51983E-15
            2982            3014     7.92318E-15     8.04629E-15
            2981            3014     7.92318E-15     8.04629E-15
            2998            3014     7.92318E-15     8.04629E-15
            2997            3014     7.92318E-15     8.04629E-15
            2983            3015     9.63249E-15     10.1508E-15
            2982            3015     9.63249E-15     10.1508E-15
            2998            3015     9.63249E-15     10.1508E-15
            2999            3015     9.63249E-15     10.1508E-15
            2984            3016     10.6134E-15     11.6153E-15
            2983            3016     10.6134E-15     11.6153E-15
            3000            3016     10.6134E-15     11.6153E-15
            2999            3016     10.6134E-15     11.6153E-15
            2985            3017     8.18352E-15     8.66726E-15
            2984            3017     8.18352E-15     8.66726E-15
            3000            3017     8.18352E-15     8.66726E-15
            3001            3017     8.18352E-15     8.66726E-15
            3002            3018     7.70904E-15     8.88272E-15
            3001            3018     7.70904E-15     8.88272E-15
            2985            3018     7.70904E-15     8.88272E-15
            2986            3018     7.70904E-15     8.88272E-15
            2986            3019     10.2104E-15     12.4708E-15
            2987            3019     10.2104E-15     12.4708E-15
            3003            3019     10.2104E-15     12.4708E-15
            3002            3019     10.2104E-15     12.4708E-15
            3004            3020     10.3127E-15     12.1078E-15
            2987            3020     10.3127E-15     12.1078E-15
            3003            3020     10.3127E-15     12.1078E-15
            2988            3020     10.3127E-15     12.1078E-15
            3004            3021     12.1663E-15     12.6589E-15
            2988            3021     12.1663E-15     12.6589E-15
            2989            3021     12.1663E-15     12.6589E-15
            3005            3021     12.1663E-15     12.6589E-15
            2990            3022     14.9403E-15     13.9456E-15
            3006            3022     14.9403E-15     13.9456E-15
            2989            3022     14.9403E-15     13.9456E-15
            3005            3022     14.9403E-15     13.9456E-15
            2991            3023     13.0217E-15     13.4934E-15
            2990            3023     13.0217E-15     13.4934E-15
            3006            3023     13.0217E-15     13.4934E-15
            3007            3023     13.0217E-15     13.4934E-15
            2992            3024     12.6673E-15     13.7927E-15
            2991            3024     12.6673E-15     13.7927E-15
            3007            3024     12.6673E-15     13.7927E-15
            3008            3024     12.6673E-15     13.7927E-15
            3009            3025     10.9595E-15     12.0783E-15
            3008            3025     10.9595E-15     12.0783E-15
            2993            3025     10.9595E-15     12.0783E-15
            2992            3025     10.9595E-15     12.0783E-15
            3010            3026     10.1634E-15     13.5715E-15
            2994            3026     10.1634E-15     13.5715E-15
            2993            3026     10.1634E-15     13.5715E-15
            3009            3026     10.1634E-15     13.5715E-15


  Minimum                            3.01170E-15     3.59152E-15
      At Element                            2995            2995
            Node                             596             596

  Maximum                                1.60683         1.67794
      At Element                            1737            2641
            Node                             389              20

           Total                     1.53567E+03     1.58514E+03


