********************************************************************************
Field Output Report, written Thu Feb 22 16:00:41 2018

Source 1
---------

   ODB: C:/Users/JMJFVA~1/AppData/Local/Temp/CRJ700n.odb
   Step: Jam2
   Frame: Increment      1: Step Time =    1.000

Loc 1 : Element nodal  values at shell < ALUMINIUM > < 5 section points > from source 1 : SNEG, (fraction = -1.0) ( Average criteria = 75%, Not averaged across region boundaries )
Loc 2 : Element nodal  values at shell < ALUMINIUM > < 5 section points > from source 1 : SPOS, (fraction = 1.0) ( Average criteria = 75%, Not averaged across region boundaries )

Output sorted by column "Node Label".

Field Output reported at element nodes for region: CRJ700-1.Region_1
   Computation algorithm: EXTRAPOLATE_COMPUTE_AVERAGE
   Averaged at nodes
   Averaging regions: ODB_REGIONS

   Element Label      Node Label         S.Mises         S.Mises
                                          @Loc 1          @Loc 2
-----------------------------------------------------------------
             645               2     34.5962E-03     35.0487E-03
            1858               2     34.5962E-03     35.0487E-03
            2023               3         1.41160         1.52730
            1648               3         1.41160         1.52730
            1618               5     34.3598E-03     34.8106E-03
             675               5     34.3598E-03     34.8106E-03
            1643               6     91.3708E-06     149.002E-06
             641               8     99.5501E-03     99.9154E-03
            1622               8     99.5501E-03     99.9154E-03
             671               8     99.5501E-03     99.9154E-03
            1862               8     99.5501E-03     99.9154E-03
             670               9     91.3708E-06     149.002E-06
            1647              10     338.114E-06     333.028E-06
             666              10     338.114E-06     333.028E-06
            2725              11         1.40988         1.52549
             840              11         1.40988         1.52549
             836              12     317.639E-03     316.958E-03
            2721              12     317.639E-03     316.958E-03
            1652              12     317.639E-03     316.958E-03
            2027              12     317.639E-03     316.958E-03
            1668              16         1.59645         1.76254
            2145              16         1.59645         1.76254
            1672              19     500.481E-03     498.071E-03
            1833              19     500.481E-03     498.071E-03
            2149              19     500.481E-03     498.071E-03
            2741              19     500.481E-03     498.071E-03
            1837              20         1.62262         1.78799
            2745              20         1.62262         1.78799
            2764              21         1.03626         1.16854
            2165              21         1.03626         1.16854
            1857              23         1.03848         1.17214
            2174              23         1.03848         1.17214
            1853              24     758.525E-03     765.622E-03
            2170              24     758.525E-03     765.622E-03
            2169              24     758.525E-03     765.622E-03
            2768              24     758.525E-03     765.622E-03
            3191              26     78.2876E-03     79.3206E-03
            2224              26     78.2876E-03     79.3206E-03
            2220              27     244.037E-03     244.940E-03
            2856              27     244.037E-03     244.940E-03
            3187              27     244.037E-03     244.940E-03
            2818              27     244.037E-03     244.940E-03
            2852              28     89.8998E-03     90.9380E-03
            2814              28     89.8998E-03     90.9380E-03
            2877              31     91.1525E-06     149.068E-06
            3216              34     91.1525E-06     149.068E-06
            3212              35     337.969E-06     332.957E-06
            2881              35     337.969E-06     332.957E-06
            1863              51     63.8160E-03     77.4256E-03
            1858              51     63.8160E-03     77.4256E-03
            1863              52     42.3203E-03     65.7171E-03
            1868              52     42.3203E-03     65.7171E-03
            1873              53     71.9215E-03     77.7898E-03
            1868              53     71.9215E-03     77.7898E-03
            1873              54     158.250E-03     143.712E-03
            1878              54     158.250E-03     143.712E-03
            1883              55     217.534E-03     237.212E-03
            1878              55     217.534E-03     237.212E-03
            1888              56     322.047E-03     306.330E-03
            1883              56     322.047E-03     306.330E-03
            1893              57     404.059E-03     401.796E-03
            1888              57     404.059E-03     401.796E-03
            1898              58     339.941E-03     376.992E-03
            1893              58     339.941E-03     376.992E-03
            1898              59     313.799E-03     299.463E-03
            1903              59     313.799E-03     299.463E-03
            1908              60     388.027E-03     367.326E-03
            1903              60     388.027E-03     367.326E-03
            1913              61     442.958E-03     470.983E-03
            1908              61     442.958E-03     470.983E-03
            1918              62     565.270E-03     538.477E-03
            1913              62     565.270E-03     538.477E-03
            1918              63     654.781E-03     644.448E-03
            1923              63     654.781E-03     644.448E-03
            1928              64     580.683E-03     646.368E-03
            1923              64     580.683E-03     646.368E-03
            1928              65     577.466E-03     546.098E-03
            1933              65     577.466E-03     546.098E-03
            1938              66     629.351E-03     620.629E-03
            1933              66     629.351E-03     620.629E-03
            1943              67     696.068E-03     689.927E-03
            1938              67     696.068E-03     689.927E-03
            1948              68     755.700E-03     784.220E-03
            1943              68     755.700E-03     784.220E-03
            1953              69     884.172E-03     853.368E-03
            1948              69     884.172E-03     853.368E-03
            1953              70     981.552E-03     959.518E-03
            1958              70     981.552E-03     959.518E-03
            1958              71     878.776E-03     978.539E-03
            1963              71     878.776E-03     978.539E-03
            1963              72     888.552E-03     846.394E-03
            1968              72     888.552E-03     846.394E-03
            1968              73     932.501E-03     915.754E-03
            1973              73     932.501E-03     915.754E-03
            1978              74     987.038E-03     985.412E-03
            1973              74     987.038E-03     985.412E-03
            1978              75         1.04683         1.07996
            1983              75         1.04683         1.07996
            1988              76         1.18802         1.14916
            1983              76         1.18802         1.14916
            1993              77         1.29409         1.26134
            1988              77         1.29409         1.26134
            1993              78         1.17043         1.30099
            1998              78         1.17043         1.30099
            2003              79         1.19164         1.15327
            1998              79         1.19164         1.15327
            2008              80         1.25607         1.19143
            2003              80         1.25607         1.19143
            2008              81         1.24986         1.32939
            2013              81         1.24986         1.32939
            2013              82         1.43475         1.36413
            2018              82         1.43475         1.36413
            2018              83         1.53639         1.50252
            2023              83         1.53639         1.50252
            1623             147     402.481E-06     400.664E-06
            1618             147     402.481E-06     400.664E-06
            1623             148     293.767E-06     283.980E-06
            1628             148     293.767E-06     283.980E-06
            1633             149     173.079E-06     188.838E-06
            1628             149     173.079E-06     188.838E-06
            1633             150     113.470E-06     97.7066E-06
            1638             150     113.470E-06     97.7066E-06
            1643             151     80.5978E-06     116.277E-06
            1638             151     80.5978E-06     116.277E-06
            1861             172     95.7429E-03     96.1141E-03
             641             172     95.7429E-03     96.1141E-03
             642             172     95.7429E-03     96.1141E-03
            1862             172     95.7429E-03     96.1141E-03
             643             173     84.6731E-03     85.0652E-03
            1860             173     84.6731E-03     85.0652E-03
            1861             173     84.6731E-03     85.0652E-03
             642             173     84.6731E-03     85.0652E-03
             643             174     67.4792E-03     67.9069E-03
             644             174     67.4792E-03     67.9069E-03
            1859             174     67.4792E-03     67.9069E-03
            1860             174     67.4792E-03     67.9069E-03
             645             175     46.0680E-03     46.5185E-03
            1859             175     46.0680E-03     46.5185E-03
            1858             175     46.0680E-03     46.5185E-03
             644             175     46.0680E-03     46.5185E-03
             645             176     402.481E-06     400.664E-06
             650             176     402.481E-06     400.664E-06
             655             177     293.767E-06     283.980E-06
             650             177     293.767E-06     283.980E-06
             660             178     173.079E-06     188.838E-06
             655             178     173.079E-06     188.838E-06
             665             179     113.470E-06     97.7066E-06
             660             179     113.470E-06     97.7066E-06
             670             180     80.5978E-06     116.277E-06
             665             180     80.5978E-06     116.277E-06
             670             181     104.284E-06     136.057E-06
             669             181     104.284E-06     136.057E-06
             669             182     160.881E-06     166.462E-06
             668             182     160.881E-06     166.462E-06
             667             183     251.725E-06     251.224E-06
             668             183     251.725E-06     251.224E-06
             666             184     318.500E-06     312.832E-06
             667             184     318.500E-06     312.832E-06
            1647             185     342.665E-06     336.235E-06
             666             185     342.665E-06     336.235E-06
             661             185     342.665E-06     336.235E-06
            1642             185     342.665E-06     336.235E-06
            1642             186     345.324E-06     338.561E-06
             656             186     345.324E-06     338.561E-06
            1637             186     345.324E-06     338.561E-06
             661             186     345.324E-06     338.561E-06
             651             187     341.559E-06     340.133E-06
            1632             187     341.559E-06     340.133E-06
            1637             187     341.559E-06     340.133E-06
             656             187     341.559E-06     340.133E-06
             651             188     345.086E-06     342.682E-06
            1632             188     345.086E-06     342.682E-06
            1627             188     345.086E-06     342.682E-06
             646             188     345.086E-06     342.682E-06
             646             189     343.667E-06     335.388E-06
            1622             189     343.667E-06     335.388E-06
            1627             189     343.667E-06     335.388E-06
             641             189     343.667E-06     335.388E-06
             672             190     95.7107E-03     96.0813E-03
            1622             190     95.7107E-03     96.0813E-03
            1621             190     95.7107E-03     96.0813E-03
             671             190     95.7107E-03     96.0813E-03
            1621             191     84.6056E-03     84.9966E-03
             673             191     84.6056E-03     84.9966E-03
            1620             191     84.6056E-03     84.9966E-03
             672             191     84.6056E-03     84.9966E-03
             673             192     67.3671E-03     67.7932E-03
             674             192     67.3671E-03     67.7932E-03
            1619             192     67.3671E-03     67.7932E-03
            1620             192     67.3671E-03     67.7932E-03
            1619             193     45.8810E-03     46.3296E-03
             675             193     45.8810E-03     46.3296E-03
            1618             193     45.8810E-03     46.3296E-03
             674             193     45.8810E-03     46.3296E-03
             675             194     63.9502E-03     77.9787E-03
             680             194     63.9502E-03     77.9787E-03
             685             195     42.0001E-03     65.8249E-03
             680             195     42.0001E-03     65.8249E-03
             685             196     70.4128E-03     76.1767E-03
             690             196     70.4128E-03     76.1767E-03
             690             197     156.523E-03     141.980E-03
             695             197     156.523E-03     141.980E-03
             695             198     215.807E-03     235.472E-03
             700             198     215.807E-03     235.472E-03
             700             199     320.219E-03     304.576E-03
             705             199     320.219E-03     304.576E-03
             710             200     402.151E-03     399.973E-03
             705             200     402.151E-03     399.973E-03
             710             201     338.172E-03     375.014E-03
             715             201     338.172E-03     375.014E-03
             720             202     311.938E-03     297.677E-03
             715             202     311.938E-03     297.677E-03
             725             203     386.200E-03     365.627E-03
             720             203     386.200E-03     365.627E-03
             725             204     441.285E-03     469.212E-03
             730             204     441.285E-03     469.212E-03
             735             205     563.443E-03     536.772E-03
             730             205     563.443E-03     536.772E-03
             735             206     652.896E-03     642.634E-03
             740             206     652.896E-03     642.634E-03
             745             207     578.901E-03     644.372E-03
             740             207     578.901E-03     644.372E-03
             745             208     575.570E-03     544.285E-03
             750             208     575.570E-03     544.285E-03
             755             209     627.525E-03     618.876E-03
             750             209     627.525E-03     618.876E-03
             760             210     694.334E-03     688.185E-03
             755             210     694.334E-03     688.185E-03
             765             211     753.966E-03     782.477E-03
             760             211     753.966E-03     782.477E-03
             765             212     882.345E-03     851.613E-03
             770             212     882.345E-03     851.613E-03
             770             213     979.641E-03     957.693E-03
             775             213     979.641E-03     957.693E-03
             775             214     876.980E-03     976.524E-03
             780             214     876.980E-03     976.524E-03
             785             215     886.650E-03     844.575E-03
             780             215     886.650E-03     844.575E-03
             790             216     930.674E-03     914.001E-03
             785             216     930.674E-03     914.001E-03
             795             217     985.304E-03     983.669E-03
             790             217     985.304E-03     983.669E-03
             795             218         1.04509         1.07822
             800             218         1.04509         1.07822
             805             219         1.18619         1.14741
             800             219         1.18619         1.14741
             805             220         1.29217         1.25951
             810             220         1.29217         1.25951
             810             221         1.16864         1.29899
             815             221         1.16864         1.29899
             820             222         1.18976         1.15146
             815             222         1.18976         1.15146
             825             223         1.25424         1.18973
             820             223         1.25424         1.18973
             825             224         1.24819         1.32762
             830             224         1.24819         1.32762
             835             225         1.43292         1.36243
             830             225         1.43292         1.36243
             840             226         1.53451         1.50071
             835             226         1.53451         1.50071
             839             227         1.29650         1.44556
             840             227         1.29650         1.44556
            2724             227         1.29650         1.44556
            2725             227         1.29650         1.44556
            2723             228         1.06850         1.21764
            2724             228         1.06850         1.21764
             838             228         1.06850         1.21764
             839             228         1.06850         1.21764
             838             229     795.181E-03     875.463E-03
            2723             229     795.181E-03     875.463E-03
             837             229     795.181E-03     875.463E-03
            2722             229     795.181E-03     875.463E-03
            2721             230     476.302E-03     498.325E-03
            2722             230     476.302E-03     498.325E-03
             837             230     476.302E-03     498.325E-03
             836             230     476.302E-03     498.325E-03
             836             231     383.053E-03     368.848E-03
            2027             231     383.053E-03     368.848E-03
             831             231     383.053E-03     368.848E-03
            2022             231     383.053E-03     368.848E-03
            2022             232     388.361E-03     399.098E-03
             826             232     388.361E-03     399.098E-03
             831             232     388.361E-03     399.098E-03
            2017             232     388.361E-03     399.098E-03
             821             233     381.487E-03     398.411E-03
            2017             233     381.487E-03     398.411E-03
             826             233     381.487E-03     398.411E-03
            2012             233     381.487E-03     398.411E-03
            2007             234     392.556E-03     373.363E-03
             816             234     392.556E-03     373.363E-03
             821             234     392.556E-03     373.363E-03
            2012             234     392.556E-03     373.363E-03
             811             235     379.671E-03     377.727E-03
            2007             235     379.671E-03     377.727E-03
             816             235     379.671E-03     377.727E-03
            2002             235     379.671E-03     377.727E-03
            1997             236     356.477E-03     364.446E-03
             806             236     356.477E-03     364.446E-03
             811             236     356.477E-03     364.446E-03
            2002             236     356.477E-03     364.446E-03
             801             237     364.089E-03     353.463E-03
            1992             237     364.089E-03     353.463E-03
             806             237     364.089E-03     353.463E-03
            1997             237     364.089E-03     353.463E-03
            1987             238     367.874E-03     379.547E-03
             801             238     367.874E-03     379.547E-03
             796             238     367.874E-03     379.547E-03
            1992             238     367.874E-03     379.547E-03
            1982             239     359.728E-03     375.424E-03
             791             239     359.728E-03     375.424E-03
            1987             239     359.728E-03     375.424E-03
             796             239     359.728E-03     375.424E-03
            1977             240     370.863E-03     361.628E-03
             786             240     370.863E-03     361.628E-03
            1982             240     370.863E-03     361.628E-03
             791             240     370.863E-03     361.628E-03
            1977             241     365.659E-03     349.408E-03
             781             241     365.659E-03     349.408E-03
             786             241     365.659E-03     349.408E-03
            1972             241     365.659E-03     349.408E-03
             776             242     355.674E-03     351.054E-03
             781             242     355.674E-03     351.054E-03
            1972             242     355.674E-03     351.054E-03
            1967             242     355.674E-03     351.054E-03
            1967             243     341.980E-03     343.013E-03
             776             243     341.980E-03     343.013E-03
             771             243     341.980E-03     343.013E-03
            1962             243     341.980E-03     343.013E-03
             771             244     344.724E-03     335.901E-03
            1962             244     344.724E-03     335.901E-03
            1957             244     344.724E-03     335.901E-03
             766             244     344.724E-03     335.901E-03
            1957             245     346.313E-03     355.330E-03
            1952             245     346.313E-03     355.330E-03
             761             245     346.313E-03     355.330E-03
             766             245     346.313E-03     355.330E-03
             756             246     339.769E-03     350.141E-03
            1947             246     339.769E-03     350.141E-03
             761             246     339.769E-03     350.141E-03
            1952             246     339.769E-03     350.141E-03
            1942             247     348.175E-03     339.622E-03
             756             247     348.175E-03     339.622E-03
             751             247     348.175E-03     339.622E-03
            1947             247     348.175E-03     339.622E-03
             751             248     344.618E-03     332.624E-03
            1942             248     344.618E-03     332.624E-03
            1937             248     344.618E-03     332.624E-03
             746             248     344.618E-03     332.624E-03
            1932             249     338.294E-03     334.186E-03
             746             249     338.294E-03     334.186E-03
            1937             249     338.294E-03     334.186E-03
             741             249     338.294E-03     334.186E-03
             741             250     328.187E-03     326.399E-03
            1932             250     328.187E-03     326.399E-03
             736             250     328.187E-03     326.399E-03
            1927             250     328.187E-03     326.399E-03
            1927             251     328.102E-03     320.372E-03
             736             251     328.102E-03     320.372E-03
            1922             251     328.102E-03     320.372E-03
             731             251     328.102E-03     320.372E-03
            1917             252     329.081E-03     332.767E-03
            1922             252     329.081E-03     332.767E-03
             731             252     329.081E-03     332.767E-03
             726             252     329.081E-03     332.767E-03
             726             253     326.207E-03     328.722E-03
            1912             253     326.207E-03     328.722E-03
             721             253     326.207E-03     328.722E-03
            1917             253     326.207E-03     328.722E-03
             721             254     330.720E-03     322.061E-03
            1907             254     330.720E-03     322.061E-03
            1912             254     330.720E-03     322.061E-03
             716             254     330.720E-03     322.061E-03
            1907             255     326.551E-03     324.121E-03
            1902             255     326.551E-03     324.121E-03
             711             255     326.551E-03     324.121E-03
             716             255     326.551E-03     324.121E-03
            1902             256     320.408E-03     318.185E-03
             706             256     320.408E-03     318.185E-03
             711             256     320.408E-03     318.185E-03
            1897             256     320.408E-03     318.185E-03
             706             257     322.889E-03     317.040E-03
            1892             257     322.889E-03     317.040E-03
            1897             257     322.889E-03     317.040E-03
             701             257     322.889E-03     317.040E-03
             701             258     323.058E-03     325.263E-03
            1887             258     323.058E-03     325.263E-03
             696             258     323.058E-03     325.263E-03
            1892             258     323.058E-03     325.263E-03
            1882             259     320.138E-03     321.104E-03
            1887             259     320.138E-03     321.104E-03
             696             259     320.138E-03     321.104E-03
             691             259     320.138E-03     321.104E-03
            1877             260     322.436E-03     318.193E-03
            1882             260     322.436E-03     318.193E-03
             686             260     322.436E-03     318.193E-03
             691             260     322.436E-03     318.193E-03
             686             261     322.588E-03     319.070E-03
            1872             261     322.588E-03     319.070E-03
             681             261     322.588E-03     319.070E-03
            1877             261     322.588E-03     319.070E-03
             676             262     321.107E-03     316.606E-03
            1872             262     321.107E-03     316.606E-03
             681             262     321.107E-03     316.606E-03
            1867             262     321.107E-03     316.606E-03
             676             263     259.073E-03     257.507E-03
             671             263     259.073E-03     257.507E-03
            1867             263     259.073E-03     257.507E-03
            1862             263     259.073E-03     257.507E-03
            1648             314         1.36522         1.41447
            1653             314         1.36522         1.41447
            1653             315         1.45805         1.46388
            1658             315         1.45805         1.46388
            1663             316         1.62846         1.50483
            1658             316         1.62846         1.50483
            1663             317         1.67453         1.67503
            1668             317         1.67453         1.67503
            1646             358     318.500E-06     312.832E-06
            1647             358     318.500E-06     312.832E-06
            1646             359     251.725E-06     251.224E-06
            1645             359     251.725E-06     251.224E-06
            1644             360     160.881E-06     166.462E-06
            1645             360     160.881E-06     166.462E-06
            1643             361     104.284E-06     136.057E-06
            1644             361     104.284E-06     136.057E-06
            2023             362         1.29864         1.44782
            1649             362         1.29864         1.44782
            2024             362         1.29864         1.44782
            1648             362         1.29864         1.44782
            1650             363         1.07143         1.22070
            2025             363         1.07143         1.22070
            1649             363         1.07143         1.22070
            2024             363         1.07143         1.22070
            2026             364     798.690E-03     879.098E-03
            1650             364     798.690E-03     879.098E-03
            1651             364     798.690E-03     879.098E-03
            2025             364     798.690E-03     879.098E-03
            2027             365     479.678E-03     501.841E-03
            1651             365     479.678E-03     501.841E-03
            1652             365     479.678E-03     501.841E-03
            2026             365     479.678E-03     501.841E-03
            2726             366     323.126E-03     337.982E-03
            1652             366     323.126E-03     337.982E-03
            1657             366     323.126E-03     337.982E-03
            2721             366     323.126E-03     337.982E-03
            2731             367     361.828E-03     383.670E-03
            1662             367     361.828E-03     383.670E-03
            2726             367     361.828E-03     383.670E-03
            1657             367     361.828E-03     383.670E-03
            1667             368     383.917E-03     375.983E-03
            1662             368     383.917E-03     375.983E-03
            2736             368     383.917E-03     375.983E-03
            2731             368     383.917E-03     375.983E-03
            2741             369     377.688E-03     361.949E-03
            1672             369     377.688E-03     361.949E-03
            2736             369     377.688E-03     361.949E-03
            1667             369     377.688E-03     361.949E-03
            2148             370     637.485E-03     662.254E-03
            1672             370     637.485E-03     662.254E-03
            1671             370     637.485E-03     662.254E-03
            2149             370     637.485E-03     662.254E-03
            2147             371     932.987E-03         1.02546
            1671             371     932.987E-03         1.02546
            2148             371     932.987E-03         1.02546
            1670             371     932.987E-03         1.02546
            1670             372         1.19751         1.36516
            2146             372         1.19751         1.36516
            2147             372         1.19751         1.36516
            1669             372         1.19751         1.36516
            2145             373         1.45212         1.63927
            1668             373         1.45212         1.63927
            1669             373         1.45212         1.63927
            2146             373         1.45212         1.63927
            2740             389         1.71335         1.70747
            2745             389         1.71335         1.70747
            2735             390         1.64640         1.52309
            2740             390         1.64640         1.52309
            2735             391         1.45254         1.46566
            2730             391         1.45254         1.46566
            2725             392         1.35946         1.41081
            2730             392         1.35946         1.41081
            2145             393         1.45472         1.47816
            2150             393         1.45472         1.47816
            2155             394         1.38453         1.45479
            2150             394         1.38453         1.45479
            2160             395         1.40666         1.39085
            2155             395         1.40666         1.39085
            2165             396         1.18947         1.07064
            2160             396         1.18947         1.07064
            2741             416     647.855E-03     685.340E-03
            2742             416     647.855E-03     685.340E-03
            1834             416     647.855E-03     685.340E-03
            1833             416     647.855E-03     685.340E-03
            1834             417     945.158E-03         1.05135
            1835             417     945.158E-03         1.05135
            2743             417     945.158E-03         1.05135
            2742             417     945.158E-03         1.05135
            2744             418         1.21265         1.39057
            2743             418         1.21265         1.39057
            1836             418         1.21265         1.39057
            1835             418         1.21265         1.39057
            1837             419         1.47428         1.66444
            1836             419         1.47428         1.66444
            2744             419         1.47428         1.66444
            2745             419         1.47428         1.66444
            1837             420         1.46723         1.49057
            1842             420         1.46723         1.49057
            1842             421         1.39878         1.46756
            1847             421         1.39878         1.46756
            1852             422         1.42037         1.40293
            1847             422         1.42037         1.40293
            1852             423         1.19349         1.07575
            1857             423         1.19349         1.07575
            1856             424     969.999E-03         1.15110
            1857             424     969.999E-03         1.15110
            2174             424     969.999E-03         1.15110
            2173             424     969.999E-03         1.15110
            2172             425     885.956E-03         1.06220
            2173             425     885.956E-03         1.06220
            1855             425     885.956E-03         1.06220
            1856             425     885.956E-03         1.06220
            2171             426     833.692E-03     919.837E-03
            1854             426     833.692E-03     919.837E-03
            2172             426     833.692E-03     919.837E-03
            1855             426     833.692E-03     919.837E-03
            1854             427     777.185E-03     805.104E-03
            2171             427     777.185E-03     805.104E-03
            1853             427     777.185E-03     805.104E-03
            2170             427     777.185E-03     805.104E-03
            2164             428     781.535E-03     786.904E-03
            1848             428     781.535E-03     786.904E-03
            1853             428     781.535E-03     786.904E-03
            2169             428     781.535E-03     786.904E-03
            2164             429     790.684E-03     760.831E-03
            2159             429     790.684E-03     760.831E-03
            1848             429     790.684E-03     760.831E-03
            1843             429     790.684E-03     760.831E-03
            1843             430     838.724E-03     818.996E-03
            1838             430     838.724E-03     818.996E-03
            2159             430     838.724E-03     818.996E-03
            2154             430     838.724E-03     818.996E-03
            2149             431     780.841E-03     772.506E-03
            2154             431     780.841E-03     772.506E-03
            1833             431     780.841E-03     772.506E-03
            1838             431     780.841E-03     772.506E-03
            2168             440     781.648E-03     807.787E-03
            2767             440     781.648E-03     807.787E-03
            2169             440     781.648E-03     807.787E-03
            2768             440     781.648E-03     807.787E-03
            2168             441     840.213E-03     923.358E-03
            2767             441     840.213E-03     923.358E-03
            2167             441     840.213E-03     923.358E-03
            2766             441     840.213E-03     923.358E-03
            2765             442     891.093E-03         1.06400
            2167             442     891.093E-03         1.06400
            2166             442     891.093E-03         1.06400
            2766             442     891.093E-03         1.06400
            2166             443     970.823E-03         1.14951
            2165             443     970.823E-03         1.14951
            2764             443     970.823E-03         1.14951
            2765             443     970.823E-03         1.14951
            2174             444         1.08046         1.07711
            2179             444         1.08046         1.07711
            2179             445     877.290E-03     764.201E-03
            2184             445     877.290E-03     764.201E-03
            2189             446     823.334E-03     935.226E-03
            2184             446     823.334E-03     935.226E-03
            2194             447     968.533E-03     963.667E-03
            2189             447     968.533E-03     963.667E-03
            2194             448     772.061E-03     732.157E-03
            2199             448     772.061E-03     732.157E-03
            2204             449     517.624E-03     565.907E-03
            2199             449     517.624E-03     565.907E-03
            2204             450     373.582E-03     338.864E-03
            2209             450     373.582E-03     338.864E-03
            2214             451     160.128E-03     178.539E-03
            2209             451     160.128E-03     178.539E-03
            2219             452     89.0984E-03     156.749E-03
            2214             452     89.0984E-03     156.749E-03
            2224             453     145.323E-03     184.487E-03
            2219             453     145.323E-03     184.487E-03
            3190             454     106.949E-03     107.969E-03
            2224             454     106.949E-03     107.969E-03
            3191             454     106.949E-03     107.969E-03
            2223             454     106.949E-03     107.969E-03
            2222             455     160.602E-03     161.582E-03
            3190             455     160.602E-03     161.582E-03
            2223             455     160.602E-03     161.582E-03
            3189             455     160.602E-03     161.582E-03
            2222             456     204.148E-03     205.082E-03
            2221             456     204.148E-03     205.082E-03
            3188             456     204.148E-03     205.082E-03
            3189             456     204.148E-03     205.082E-03
            3188             457     232.929E-03     233.838E-03
            2221             457     232.929E-03     233.838E-03
            3187             457     232.929E-03     233.838E-03
            2220             457     232.929E-03     233.838E-03
            2818             458     634.785E-03     631.194E-03
            2813             458     634.785E-03     631.194E-03
            2215             458     634.785E-03     631.194E-03
            2220             458     634.785E-03     631.194E-03
            2210             459     786.171E-03     775.583E-03
            2813             459     786.171E-03     775.583E-03
            2808             459     786.171E-03     775.583E-03
            2215             459     786.171E-03     775.583E-03
            2803             460     790.088E-03     781.583E-03
            2205             460     790.088E-03     781.583E-03
            2210             460     790.088E-03     781.583E-03
            2808             460     790.088E-03     781.583E-03
            2200             461     789.488E-03     779.357E-03
            2205             461     789.488E-03     779.357E-03
            2798             461     789.488E-03     779.357E-03
            2803             461     789.488E-03     779.357E-03
            2793             462     783.888E-03     786.197E-03
            2798             462     783.888E-03     786.197E-03
            2195             462     783.888E-03     786.197E-03
            2200             462     783.888E-03     786.197E-03
            2788             463     790.961E-03     795.619E-03
            2195             463     790.961E-03     795.619E-03
            2190             463     790.961E-03     795.619E-03
            2793             463     790.961E-03     795.619E-03
            2783             464     789.968E-03     775.467E-03
            2190             464     789.968E-03     775.467E-03
            2788             464     789.968E-03     775.467E-03
            2185             464     789.968E-03     775.467E-03
            2778             465     762.395E-03     769.725E-03
            2783             465     762.395E-03     769.725E-03
            2180             465     762.395E-03     769.725E-03
            2185             465     762.395E-03     769.725E-03
            2180             466     769.230E-03     771.860E-03
            2175             466     769.230E-03     771.860E-03
            2778             466     769.230E-03     771.860E-03
            2773             466     769.230E-03     771.860E-03
            2773             467     775.797E-03     748.500E-03
            2175             467     775.797E-03     748.500E-03
            2768             467     775.797E-03     748.500E-03
            2170             467     775.797E-03     748.500E-03
            2769             470         1.07307         1.07091
            2764             470         1.07307         1.07091
            2769             471     878.321E-03     763.984E-03
            2774             471     878.321E-03     763.984E-03
            2774             472     826.375E-03     937.633E-03
            2779             472     826.375E-03     937.633E-03
            2779             473     966.891E-03     963.089E-03
            2784             473     966.891E-03     963.089E-03
            2789             474     772.917E-03     732.352E-03
            2784             474     772.917E-03     732.352E-03
            2789             475     519.828E-03     568.058E-03
            2794             475     519.828E-03     568.058E-03
            2799             476     377.596E-03     342.035E-03
            2794             476     377.596E-03     342.035E-03
            2799             477     176.652E-03     185.976E-03
            2804             477     176.652E-03     185.976E-03
            2809             478     111.903E-03     165.097E-03
            2804             478     111.903E-03     165.097E-03
            2809             479     166.429E-03     198.798E-03
            2814             479     166.429E-03     198.798E-03
            2857             562     400.369E-06     398.709E-06
            2852             562     400.369E-06     398.709E-06
            2857             563     292.517E-06     282.471E-06
            2862             563     292.517E-06     282.471E-06
            2867             564     172.142E-06     187.986E-06
            2862             564     172.142E-06     187.986E-06
            2872             565     113.218E-06     97.4709E-06
            2867             565     113.218E-06     97.4709E-06
            2872             566     80.7501E-06     116.273E-06
            2877             566     80.7501E-06     116.273E-06
            3211             596     80.7501E-06     116.273E-06
            3216             596     80.7501E-06     116.273E-06
            3206             597     113.218E-06     97.4709E-06
            3211             597     113.218E-06     97.4709E-06
            3206             598     172.142E-06     187.986E-06
            3201             598     172.142E-06     187.986E-06
            3196             599     292.517E-06     282.471E-06
            3201             599     292.517E-06     282.471E-06
            3196             600     400.369E-06     398.709E-06
            3191             600     400.369E-06     398.709E-06
            2817             601     236.377E-03     237.289E-03
            2856             601     236.377E-03     237.289E-03
            2855             601     236.377E-03     237.289E-03
            2818             601     236.377E-03     237.289E-03
            2854             602     210.735E-03     211.676E-03
            2816             602     210.735E-03     211.676E-03
            2817             602     210.735E-03     211.676E-03
            2855             602     210.735E-03     211.676E-03
            2853             603     169.748E-03     170.736E-03
            2816             603     169.748E-03     170.736E-03
            2854             603     169.748E-03     170.736E-03
            2815             603     169.748E-03     170.736E-03
            2852             604     117.880E-03     118.907E-03
            2815             604     117.880E-03     118.907E-03
            2814             604     117.880E-03     118.907E-03
            2853             604     117.880E-03     118.907E-03
            3192             607     343.500E-06     335.182E-06
            2861             607     343.500E-06     335.182E-06
            3187             607     343.500E-06     335.182E-06
            2856             607     343.500E-06     335.182E-06
            2866             608     344.966E-06     342.488E-06
            3197             608     344.966E-06     342.488E-06
            3192             608     344.966E-06     342.488E-06
            2861             608     344.966E-06     342.488E-06
            3202             609     341.441E-06     340.042E-06
            2871             609     341.441E-06     340.042E-06
            2866             609     341.441E-06     340.042E-06
            3197             609     341.441E-06     340.042E-06
            2871             610     345.189E-06     338.446E-06
            3202             610     345.189E-06     338.446E-06
            3207             610     345.189E-06     338.446E-06
            2876             610     345.189E-06     338.446E-06
            2876             611     342.533E-06     336.117E-06
            3212             611     342.533E-06     336.117E-06
            3207             611     342.533E-06     336.117E-06
            2881             611     342.533E-06     336.117E-06
            2880             612     318.431E-06     312.801E-06
            2881             612     318.431E-06     312.801E-06
            2880             613     251.767E-06     251.230E-06
            2879             613     251.767E-06     251.230E-06
            2879             614     160.872E-06     166.374E-06
            2878             614     160.872E-06     166.374E-06
            2877             615     104.128E-06     136.001E-06
            2878             615     104.128E-06     136.001E-06
            3216             631     104.128E-06     136.001E-06
            3215             631     104.128E-06     136.001E-06
            3215             632     160.872E-06     166.374E-06
            3214             632     160.872E-06     166.374E-06
            3213             633     251.767E-06     251.230E-06
            3214             633     251.767E-06     251.230E-06
            3213             634     318.431E-06     312.801E-06
            3212             634     318.431E-06     312.801E-06
             647            1205     340.317E-06     330.435E-06
             641            1205     340.317E-06     330.435E-06
             642            1205     340.317E-06     330.435E-06
             646            1205     340.317E-06     330.435E-06
             648            1206     323.403E-06     313.472E-06
             647            1206     323.403E-06     313.472E-06
             643            1206     323.403E-06     313.472E-06
             642            1206     323.403E-06     313.472E-06
             649            1207     309.194E-06     306.703E-06
             648            1207     309.194E-06     306.703E-06
             643            1207     309.194E-06     306.703E-06
             644            1207     309.194E-06     306.703E-06
             645            1208     355.514E-06     356.304E-06
             650            1208     355.514E-06     356.304E-06
             644            1208     355.514E-06     356.304E-06
             649            1208     355.514E-06     356.304E-06
             646            1209     336.654E-06     330.811E-06
             651            1209     336.654E-06     330.811E-06
             647            1209     336.654E-06     330.811E-06
             652            1209     336.654E-06     330.811E-06
             648            1210     309.763E-06     294.481E-06
             652            1210     309.763E-06     294.481E-06
             653            1210     309.763E-06     294.481E-06
             647            1210     309.763E-06     294.481E-06
             654            1211     277.145E-06     258.109E-06
             648            1211     277.145E-06     258.109E-06
             649            1211     277.145E-06     258.109E-06
             653            1211     277.145E-06     258.109E-06
             649            1212     278.376E-06     265.088E-06
             654            1212     278.376E-06     265.088E-06
             650            1212     278.376E-06     265.088E-06
             655            1212     278.376E-06     265.088E-06
             657            1213     323.061E-06     324.742E-06
             656            1213     323.061E-06     324.742E-06
             652            1213     323.061E-06     324.742E-06
             651            1213     323.061E-06     324.742E-06
             657            1214     274.166E-06     282.384E-06
             658            1214     274.166E-06     282.384E-06
             653            1214     274.166E-06     282.384E-06
             652            1214     274.166E-06     282.384E-06
             653            1215     203.454E-06     216.928E-06
             659            1215     203.454E-06     216.928E-06
             658            1215     203.454E-06     216.928E-06
             654            1215     203.454E-06     216.928E-06
             659            1216     168.109E-06     183.638E-06
             654            1216     168.109E-06     183.638E-06
             660            1216     168.109E-06     183.638E-06
             655            1216     168.109E-06     183.638E-06
             661            1217     323.963E-06     319.155E-06
             662            1217     323.963E-06     319.155E-06
             657            1217     323.963E-06     319.155E-06
             656            1217     323.963E-06     319.155E-06
             657            1218     265.593E-06     264.713E-06
             658            1218     265.593E-06     264.713E-06
             663            1218     265.593E-06     264.713E-06
             662            1218     265.593E-06     264.713E-06
             658            1219     179.501E-06     173.225E-06
             663            1219     179.501E-06     173.225E-06
             664            1219     179.501E-06     173.225E-06
             659            1219     179.501E-06     173.225E-06
             665            1220     121.942E-06     107.240E-06
             660            1220     121.942E-06     107.240E-06
             664            1220     121.942E-06     107.240E-06
             659            1220     121.942E-06     107.240E-06
             661            1221     321.553E-06     315.907E-06
             667            1221     321.553E-06     315.907E-06
             666            1221     321.553E-06     315.907E-06
             662            1221     321.553E-06     315.907E-06
             662            1222     256.476E-06     257.073E-06
             667            1222     256.476E-06     257.073E-06
             663            1222     256.476E-06     257.073E-06
             668            1222     256.476E-06     257.073E-06
             669            1223     162.097E-06     170.795E-06
             663            1223     162.097E-06     170.795E-06
             664            1223     162.097E-06     170.795E-06
             668            1223     162.097E-06     170.795E-06
             664            1224     96.1412E-06     119.650E-06
             670            1224     96.1412E-06     119.650E-06
             665            1224     96.1412E-06     119.650E-06
             669            1224     96.1412E-06     119.650E-06
             672            1225     246.320E-03     244.967E-03
             677            1225     246.320E-03     244.967E-03
             671            1225     246.320E-03     244.967E-03
             676            1225     246.320E-03     244.967E-03
             673            1226     209.044E-03     209.415E-03
             672            1226     209.044E-03     209.415E-03
             677            1226     209.044E-03     209.415E-03
             678            1226     209.044E-03     209.415E-03
             678            1227     158.089E-03     159.388E-03
             673            1227     158.089E-03     159.388E-03
             679            1227     158.089E-03     159.388E-03
             674            1227     158.089E-03     159.388E-03
             679            1228     97.8152E-03     105.180E-03
             675            1228     97.8152E-03     105.180E-03
             674            1228     97.8152E-03     105.180E-03
             680            1228     97.8152E-03     105.180E-03
             676            1229     303.209E-03     299.872E-03
             677            1229     303.209E-03     299.872E-03
             681            1229     303.209E-03     299.872E-03
             682            1229     303.209E-03     299.872E-03
             682            1230     250.156E-03     253.899E-03
             677            1230     250.156E-03     253.899E-03
             683            1230     250.156E-03     253.899E-03
             678            1230     250.156E-03     253.899E-03
             683            1231     181.991E-03     188.636E-03
             684            1231     181.991E-03     188.636E-03
             678            1231     181.991E-03     188.636E-03
             679            1231     181.991E-03     188.636E-03
             680            1232     95.5062E-03     109.228E-03
             685            1232     95.5062E-03     109.228E-03
             679            1232     95.5062E-03     109.228E-03
             684            1232     95.5062E-03     109.228E-03
             681            1233     304.998E-03     303.865E-03
             687            1233     304.998E-03     303.865E-03
             686            1233     304.998E-03     303.865E-03
             682            1233     304.998E-03     303.865E-03
             682            1234     258.688E-03     263.560E-03
             688            1234     258.688E-03     263.560E-03
             683            1234     258.688E-03     263.560E-03
             687            1234     258.688E-03     263.560E-03
             688            1235     192.469E-03     197.790E-03
             683            1235     192.469E-03     197.790E-03
             684            1235     192.469E-03     197.790E-03
             689            1235     192.469E-03     197.790E-03
             690            1236     112.718E-03     116.675E-03
             684            1236     112.718E-03     116.675E-03
             689            1236     112.718E-03     116.675E-03
             685            1236     112.718E-03     116.675E-03
             686            1237     308.157E-03     307.057E-03
             687            1237     308.157E-03     307.057E-03
             691            1237     308.157E-03     307.057E-03
             692            1237     308.157E-03     307.057E-03
             688            1238     272.730E-03     271.300E-03
             687            1238     272.730E-03     271.300E-03
             692            1238     272.730E-03     271.300E-03
             693            1238     272.730E-03     271.300E-03
             688            1239     219.357E-03     211.367E-03
             693            1239     219.357E-03     211.367E-03
             689            1239     219.357E-03     211.367E-03
             694            1239     219.357E-03     211.367E-03
             689            1240     171.875E-03     159.062E-03
             695            1240     171.875E-03     159.062E-03
             690            1240     171.875E-03     159.062E-03
             694            1240     171.875E-03     159.062E-03
             696            1241     310.243E-03     313.843E-03
             692            1241     310.243E-03     313.843E-03
             697            1241     310.243E-03     313.843E-03
             691            1241     310.243E-03     313.843E-03
             692            1242     282.455E-03     291.553E-03
             697            1242     282.455E-03     291.553E-03
             693            1242     282.455E-03     291.553E-03
             698            1242     282.455E-03     291.553E-03
             694            1243     240.732E-03     260.609E-03
             698            1243     240.732E-03     260.609E-03
             699            1243     240.732E-03     260.609E-03
             693            1243     240.732E-03     260.609E-03
             694            1244     216.417E-03     240.158E-03
             699            1244     216.417E-03     240.158E-03
             695            1244     216.417E-03     240.158E-03
             700            1244     216.417E-03     240.158E-03
             696            1245     323.653E-03     319.598E-03
             697            1245     323.653E-03     319.598E-03
             702            1245     323.653E-03     319.598E-03
             701            1245     323.653E-03     319.598E-03
             698            1246     318.082E-03     303.108E-03
             697            1246     318.082E-03     303.108E-03
             702            1246     318.082E-03     303.108E-03
             703            1246     318.082E-03     303.108E-03
             698            1247     309.025E-03     292.232E-03
             703            1247     309.025E-03     292.232E-03
             704            1247     309.025E-03     292.232E-03
             699            1247     309.025E-03     292.232E-03
             705            1248     313.265E-03     298.461E-03
             699            1248     313.265E-03     298.461E-03
             700            1248     313.265E-03     298.461E-03
             704            1248     313.265E-03     298.461E-03
             702            1249     326.990E-03     318.172E-03
             701            1249     326.990E-03     318.172E-03
             706            1249     326.990E-03     318.172E-03
             707            1249     326.990E-03     318.172E-03
             708            1250     330.390E-03     318.991E-03
             703            1250     330.390E-03     318.991E-03
             707            1250     330.390E-03     318.991E-03
             702            1250     330.390E-03     318.991E-03
             703            1251     335.534E-03     331.365E-03
             708            1251     335.534E-03     331.365E-03
             709            1251     335.534E-03     331.365E-03
             704            1251     335.534E-03     331.365E-03
             704            1252     371.851E-03     372.098E-03
             709            1252     371.851E-03     372.098E-03
             710            1252     371.851E-03     372.098E-03
             705            1252     371.851E-03     372.098E-03
             711            1253     317.391E-03     319.094E-03
             707            1253     317.391E-03     319.094E-03
             712            1253     317.391E-03     319.094E-03
             706            1253     317.391E-03     319.094E-03
             712            1254     307.913E-03     331.061E-03
             707            1254     307.913E-03     331.061E-03
             708            1254     307.913E-03     331.061E-03
             713            1254     307.913E-03     331.061E-03
             714            1255     305.791E-03     359.389E-03
             713            1255     305.791E-03     359.389E-03
             709            1255     305.791E-03     359.389E-03
             708            1255     305.791E-03     359.389E-03
             709            1256     324.220E-03     375.928E-03
             715            1256     324.220E-03     375.928E-03
             710            1256     324.220E-03     375.928E-03
             714            1256     324.220E-03     375.928E-03
             717            1257     324.949E-03     323.425E-03
             716            1257     324.949E-03     323.425E-03
             711            1257     324.949E-03     323.425E-03
             712            1257     324.949E-03     323.425E-03
             712            1258     329.071E-03     330.378E-03
             718            1258     329.071E-03     330.378E-03
             717            1258     329.071E-03     330.378E-03
             713            1258     329.071E-03     330.378E-03
             718            1259     344.343E-03     348.501E-03
             713            1259     344.343E-03     348.501E-03
             719            1259     344.343E-03     348.501E-03
             714            1259     344.343E-03     348.501E-03
             715            1260     333.014E-03     328.413E-03
             720            1260     333.014E-03     328.413E-03
             719            1260     333.014E-03     328.413E-03
             714            1260     333.014E-03     328.413E-03
             717            1261     335.845E-03     330.652E-03
             716            1261     335.845E-03     330.652E-03
             722            1261     335.845E-03     330.652E-03
             721            1261     335.845E-03     330.652E-03
             723            1262     356.764E-03     351.400E-03
             717            1262     356.764E-03     351.400E-03
             722            1262     356.764E-03     351.400E-03
             718            1262     356.764E-03     351.400E-03
             718            1263     377.465E-03     369.946E-03
             724            1263     377.465E-03     369.946E-03
             723            1263     377.465E-03     369.946E-03
             719            1263     377.465E-03     369.946E-03
             720            1264     384.405E-03     371.093E-03
             725            1264     384.405E-03     371.093E-03
             724            1264     384.405E-03     371.093E-03
             719            1264     384.405E-03     371.093E-03
             721            1265     339.038E-03     347.271E-03
             722            1265     339.038E-03     347.271E-03
             726            1265     339.038E-03     347.271E-03
             727            1265     339.038E-03     347.271E-03
             722            1266     366.939E-03     388.368E-03
             727            1266     366.939E-03     388.368E-03
             723            1266     366.939E-03     388.368E-03
             728            1266     366.939E-03     388.368E-03
             723            1267     387.109E-03     429.457E-03
             724            1267     387.109E-03     429.457E-03
             728            1267     387.109E-03     429.457E-03
             729            1267     387.109E-03     429.457E-03
             725            1268     416.867E-03     458.755E-03
             724            1268     416.867E-03     458.755E-03
             730            1268     416.867E-03     458.755E-03
             729            1268     416.867E-03     458.755E-03
             727            1269     360.691E-03     355.641E-03
             726            1269     360.691E-03     355.641E-03
             731            1269     360.691E-03     355.641E-03
             732            1269     360.691E-03     355.641E-03
             732            1270     426.697E-03     399.766E-03
             728            1270     426.697E-03     399.766E-03
             727            1270     426.697E-03     399.766E-03
             733            1270     426.697E-03     399.766E-03
             728            1271     487.571E-03     457.095E-03
             734            1271     487.571E-03     457.095E-03
             733            1271     487.571E-03     457.095E-03
             729            1271     487.571E-03     457.095E-03
             729            1272     538.904E-03     515.118E-03
             735            1272     538.904E-03     515.118E-03
             734            1272     538.904E-03     515.118E-03
             730            1272     538.904E-03     515.118E-03
             732            1273     363.252E-03     351.325E-03
             736            1273     363.252E-03     351.325E-03
             731            1273     363.252E-03     351.325E-03
             737            1273     363.252E-03     351.325E-03
             737            1274     439.096E-03     419.792E-03
             732            1274     439.096E-03     419.792E-03
             738            1274     439.096E-03     419.792E-03
             733            1274     439.096E-03     419.792E-03
             734            1275     515.077E-03     506.709E-03
             739            1275     515.077E-03     506.709E-03
             733            1275     515.077E-03     506.709E-03
             738            1275     515.077E-03     506.709E-03
             734            1276     601.780E-03     599.521E-03
             740            1276     601.780E-03     599.521E-03
             735            1276     601.780E-03     599.521E-03
             739            1276     601.780E-03     599.521E-03
             737            1277     346.480E-03     355.134E-03
             736            1277     346.480E-03     355.134E-03
             741            1277     346.480E-03     355.134E-03
             742            1277     346.480E-03     355.134E-03
             743            1278     397.062E-03     444.116E-03
             738            1278     397.062E-03     444.116E-03
             737            1278     397.062E-03     444.116E-03
             742            1278     397.062E-03     444.116E-03
             738            1279     463.143E-03     561.611E-03
             743            1279     463.143E-03     561.611E-03
             744            1279     463.143E-03     561.611E-03
             739            1279     463.143E-03     561.611E-03
             739            1280     538.037E-03     631.768E-03
             744            1280     538.037E-03     631.768E-03
             740            1280     538.037E-03     631.768E-03
             745            1280     538.037E-03     631.768E-03
             742            1281     362.490E-03     359.409E-03
             746            1281     362.490E-03     359.409E-03
             741            1281     362.490E-03     359.409E-03
             747            1281     362.490E-03     359.409E-03
             742            1282     435.667E-03     436.971E-03
             748            1282     435.667E-03     436.971E-03
             747            1282     435.667E-03     436.971E-03
             743            1282     435.667E-03     436.971E-03
             749            1283     530.772E-03     534.062E-03
             748            1283     530.772E-03     534.062E-03
             744            1283     530.772E-03     534.062E-03
             743            1283     530.772E-03     534.062E-03
             749            1284     576.389E-03     561.687E-03
             744            1284     576.389E-03     561.687E-03
             750            1284     576.389E-03     561.687E-03
             745            1284     576.389E-03     561.687E-03
             752            1285     380.294E-03     375.086E-03
             747            1285     380.294E-03     375.086E-03
             746            1285     380.294E-03     375.086E-03
             751            1285     380.294E-03     375.086E-03
             748            1286     473.981E-03     470.463E-03
             752            1286     473.981E-03     470.463E-03
             753            1286     473.981E-03     470.463E-03
             747            1286     473.981E-03     470.463E-03
             754            1287     562.083E-03     565.351E-03
             748            1287     562.083E-03     565.351E-03
             753            1287     562.083E-03     565.351E-03
             749            1287     562.083E-03     565.351E-03
             755            1288     610.030E-03     613.279E-03
             749            1288     610.030E-03     613.279E-03
             750            1288     610.030E-03     613.279E-03
             754            1288     610.030E-03     613.279E-03
             751            1289     394.408E-03     391.277E-03
             757            1289     394.408E-03     391.277E-03
             752            1289     394.408E-03     391.277E-03
             756            1289     394.408E-03     391.277E-03
             753            1290     493.411E-03     493.664E-03
             758            1290     493.411E-03     493.664E-03
             752            1290     493.411E-03     493.664E-03
             757            1290     493.411E-03     493.664E-03
             759            1291     580.768E-03     591.263E-03
             754            1291     580.768E-03     591.263E-03
             753            1291     580.768E-03     591.263E-03
             758            1291     580.768E-03     591.263E-03
             754            1292     655.034E-03     663.362E-03
             755            1292     655.034E-03     663.362E-03
             760            1292     655.034E-03     663.362E-03
             759            1292     655.034E-03     663.362E-03
             756            1293     398.780E-03     410.102E-03
             762            1293     398.780E-03     410.102E-03
             757            1293     398.780E-03     410.102E-03
             761            1293     398.780E-03     410.102E-03
             758            1294     513.985E-03     533.580E-03
             762            1294     513.985E-03     533.580E-03
             763            1294     513.985E-03     533.580E-03
             757            1294     513.985E-03     533.580E-03
             758            1295     611.626E-03     658.806E-03
             759            1295     611.626E-03     658.806E-03
             763            1295     611.626E-03     658.806E-03
             764            1295     611.626E-03     658.806E-03
             760            1296     703.726E-03     751.724E-03
             764            1296     703.726E-03     751.724E-03
             765            1296     703.726E-03     751.724E-03
             759            1296     703.726E-03     751.724E-03
             766            1297     428.662E-03     420.066E-03
             762            1297     428.662E-03     420.066E-03
             767            1297     428.662E-03     420.066E-03
             761            1297     428.662E-03     420.066E-03
             768            1298     592.167E-03     553.097E-03
             763            1298     592.167E-03     553.097E-03
             767            1298     592.167E-03     553.097E-03
             762            1298     592.167E-03     553.097E-03
             769            1299     732.985E-03     700.646E-03
             768            1299     732.985E-03     700.646E-03
             763            1299     732.985E-03     700.646E-03
             764            1299     732.985E-03     700.646E-03
             769            1300     837.732E-03     815.974E-03
             765            1300     837.732E-03     815.974E-03
             764            1300     837.732E-03     815.974E-03
             770            1300     837.732E-03     815.974E-03
             767            1301     426.998E-03     409.907E-03
             772            1301     426.998E-03     409.907E-03
             771            1301     426.998E-03     409.907E-03
             766            1301     426.998E-03     409.907E-03
             772            1302     600.661E-03     573.228E-03
             767            1302     600.661E-03     573.228E-03
             768            1302     600.661E-03     573.228E-03
             773            1302     600.661E-03     573.228E-03
             769            1303     765.191E-03     752.466E-03
             773            1303     765.191E-03     752.466E-03
             768            1303     765.191E-03     752.466E-03
             774            1303     765.191E-03     752.466E-03
             770            1304     909.204E-03     900.251E-03
             775            1304     909.204E-03     900.251E-03
             774            1304     909.204E-03     900.251E-03
             769            1304     909.204E-03     900.251E-03
             772            1305     395.348E-03     414.813E-03
             777            1305     395.348E-03     414.813E-03
             771            1305     395.348E-03     414.813E-03
             776            1305     395.348E-03     414.813E-03
             772            1306     527.166E-03     607.143E-03
             778            1306     527.166E-03     607.143E-03
             773            1306     527.166E-03     607.143E-03
             777            1306     527.166E-03     607.143E-03
             779            1307     673.137E-03     827.746E-03
             774            1307     673.137E-03     827.746E-03
             773            1307     673.137E-03     827.746E-03
             778            1307     673.137E-03     827.746E-03
             780            1308     808.989E-03     952.390E-03
             779            1308     808.989E-03     952.390E-03
             774            1308     808.989E-03     952.390E-03
             775            1308     808.989E-03     952.390E-03
             776            1309     422.534E-03     417.229E-03
             781            1309     422.534E-03     417.229E-03
             782            1309     422.534E-03     417.229E-03
             777            1309     422.534E-03     417.229E-03
             783            1310     588.794E-03     585.159E-03
             782            1310     588.794E-03     585.159E-03
             778            1310     588.794E-03     585.159E-03
             777            1310     588.794E-03     585.159E-03
             783            1311     768.752E-03     769.522E-03
             779            1311     768.752E-03     769.522E-03
             778            1311     768.752E-03     769.522E-03
             784            1311     768.752E-03     769.522E-03
             780            1312     868.199E-03     848.550E-03
             779            1312     868.199E-03     848.550E-03
             785            1312     868.199E-03     848.550E-03
             784            1312     868.199E-03     848.550E-03
             786            1313     448.861E-03     438.893E-03
             782            1313     448.861E-03     438.893E-03
             787            1313     448.861E-03     438.893E-03
             781            1313     448.861E-03     438.893E-03
             788            1314     637.724E-03     624.238E-03
             783            1314     637.724E-03     624.238E-03
             782            1314     637.724E-03     624.238E-03
             787            1314     637.724E-03     624.238E-03
             783            1315     801.970E-03     798.286E-03
             789            1315     801.970E-03     798.286E-03
             784            1315     801.970E-03     798.286E-03
             788            1315     801.970E-03     798.286E-03
             790            1316     895.864E-03     895.485E-03
             789            1316     895.864E-03     895.485E-03
             785            1316     895.864E-03     895.485E-03
             784            1316     895.864E-03     895.485E-03
             792            1317     463.057E-03     460.523E-03
             786            1317     463.057E-03     460.523E-03
             791            1317     463.057E-03     460.523E-03
             787            1317     463.057E-03     460.523E-03
             788            1318     647.127E-03     650.849E-03
             787            1318     647.127E-03     650.849E-03
             792            1318     647.127E-03     650.849E-03
             793            1318     647.127E-03     650.849E-03
             788            1319     800.460E-03     823.048E-03
             794            1319     800.460E-03     823.048E-03
             793            1319     800.460E-03     823.048E-03
             789            1319     800.460E-03     823.048E-03
             789            1320     923.861E-03     944.018E-03
             794            1320     923.861E-03     944.018E-03
             795            1320     923.861E-03     944.018E-03
             790            1320     923.861E-03     944.018E-03
             791            1321     467.116E-03     482.470E-03
             797            1321     467.116E-03     482.470E-03
             796            1321     467.116E-03     482.470E-03
             792            1321     467.116E-03     482.470E-03
             792            1322     669.310E-03     693.282E-03
             797            1322     669.310E-03     693.282E-03
             793            1322     669.310E-03     693.282E-03
             798            1322     669.310E-03     693.282E-03
             798            1323     832.110E-03     892.007E-03
             799            1323     832.110E-03     892.007E-03
             794            1323     832.110E-03     892.007E-03
             793            1323     832.110E-03     892.007E-03
             799            1324     972.870E-03         1.03288
             795            1324     972.870E-03         1.03288
             794            1324     972.870E-03         1.03288
             800            1324     972.870E-03         1.03288
             796            1325     502.720E-03     491.763E-03
             801            1325     502.720E-03     491.763E-03
             797            1325     502.720E-03     491.763E-03
             802            1325     502.720E-03     491.763E-03
             798            1326     763.506E-03     713.168E-03
             797            1326     763.506E-03     713.168E-03
             802            1326     763.506E-03     713.168E-03
             803            1326     763.506E-03     713.168E-03
             804            1327     976.422E-03     936.765E-03
             799            1327     976.422E-03     936.765E-03
             803            1327     976.422E-03     936.765E-03
             798            1327     976.422E-03     936.765E-03
             805            1328         1.12510         1.09956
             804            1328         1.12510         1.09956
             799            1328         1.12510         1.09956
             800            1328         1.12510         1.09956
             802            1329     495.673E-03     474.618E-03
             801            1329     495.673E-03     474.618E-03
             806            1329     495.673E-03     474.618E-03
             807            1329     495.673E-03     474.618E-03
             802            1330     765.476E-03     731.422E-03
             803            1330     765.476E-03     731.422E-03
             808            1330     765.476E-03     731.422E-03
             807            1330     765.476E-03     731.422E-03
             809            1331         1.00895     993.150E-03
             808            1331         1.00895     993.150E-03
             803            1331         1.00895     993.150E-03
             804            1331         1.00895     993.150E-03
             804            1332         1.20346         1.18964
             810            1332         1.20346         1.18964
             809            1332         1.20346         1.18964
             805            1332         1.20346         1.18964
             811            1333     451.890E-03     484.173E-03
             812            1333     451.890E-03     484.173E-03
             806            1333     451.890E-03     484.173E-03
             807            1333     451.890E-03     484.173E-03
             812            1334     664.327E-03     776.644E-03
             813            1334     664.327E-03     776.644E-03
             807            1334     664.327E-03     776.644E-03
             808            1334     664.327E-03     776.644E-03
             808            1335     878.994E-03         1.08651
             809            1335     878.994E-03         1.08651
             813            1335     878.994E-03         1.08651
             814            1335     878.994E-03         1.08651
             815            1336         1.07286         1.26159
             809            1336         1.07286         1.26159
             810            1336         1.07286         1.26159
             814            1336         1.07286         1.26159
             817            1337     496.509E-03     490.624E-03
             812            1337     496.509E-03     490.624E-03
             816            1337     496.509E-03     490.624E-03
             811            1337     496.509E-03     490.624E-03
             817            1338     759.242E-03     745.233E-03
             818            1338     759.242E-03     745.233E-03
             812            1338     759.242E-03     745.233E-03
             813            1338     759.242E-03     745.233E-03
             814            1339         1.01276         1.01008
             819            1339         1.01276         1.01008
             818            1339         1.01276         1.01008
             813            1339         1.01276         1.01008
             819            1340         1.15536         1.14259
             815            1340         1.15536         1.14259
             814            1340         1.15536         1.14259
             820            1340         1.15536         1.14259
             821            1341     530.432E-03     510.280E-03
             817            1341     530.432E-03     510.280E-03
             822            1341     530.432E-03     510.280E-03
             816            1341     530.432E-03     510.280E-03
             817            1342     818.113E-03     775.097E-03
             818            1342     818.113E-03     775.097E-03
             822            1342     818.113E-03     775.097E-03
             823            1342     818.113E-03     775.097E-03
             819            1343         1.05925         1.01172
             823            1343         1.05925         1.01172
             824            1343         1.05925         1.01172
             818            1343         1.05925         1.01172
             819            1344         1.20272         1.15539
             824            1344         1.20272         1.15539
             820            1344         1.20272         1.15539
             825            1344         1.20272         1.15539
             821            1345     520.740E-03     553.604E-03
             822            1345     520.740E-03     553.604E-03
             826            1345     520.740E-03     553.604E-03
             827            1345     520.740E-03     553.604E-03
             823            1346     784.661E-03     852.961E-03
             828            1346     784.661E-03     852.961E-03
             827            1346     784.661E-03     852.961E-03
             822            1346     784.661E-03     852.961E-03
             823            1347     983.964E-03         1.11258
             829            1347     983.964E-03         1.11258
             828            1347     983.964E-03         1.11258
             824            1347     983.964E-03         1.11258
             824            1348         1.15368         1.27818
             830            1348         1.15368         1.27818
             825            1348         1.15368         1.27818
             829            1348         1.15368         1.27818
             826            1349     565.649E-03     553.059E-03
             832            1349     565.649E-03     553.059E-03
             831            1349     565.649E-03     553.059E-03
             827            1349     565.649E-03     553.059E-03
             827            1350     906.267E-03     839.259E-03
             832            1350     906.267E-03     839.259E-03
             833            1350     906.267E-03     839.259E-03
             828            1350     906.267E-03     839.259E-03
             829            1351         1.17880         1.10735
             828            1351         1.17880         1.10735
             833            1351         1.17880         1.10735
             834            1351         1.17880         1.10735
             829            1352         1.36081         1.30313
             834            1352         1.36081         1.30313
             835            1352         1.36081         1.30313
             830            1352         1.36081         1.30313
             831            1353     555.234E-03     532.339E-03
             832            1353     555.234E-03     532.339E-03
             837            1353     555.234E-03     532.339E-03
             836            1353     555.234E-03     532.339E-03
             837            1354     901.473E-03     861.323E-03
             838            1354     901.473E-03     861.323E-03
             833            1354     901.473E-03     861.323E-03
             832            1354     901.473E-03     861.323E-03
             838            1355         1.20138         1.18396
             839            1355         1.20138         1.18396
             834            1355         1.20138         1.18396
             833            1355         1.20138         1.18396
             840            1356         1.43119         1.42123
             835            1356         1.43119         1.42123
             839            1356         1.43119         1.42123
             834            1356         1.43119         1.42123
            1618            2006     355.514E-06     356.304E-06
            1623            2006     355.514E-06     356.304E-06
            1624            2006     355.514E-06     356.304E-06
            1619            2006     355.514E-06     356.304E-06
            1620            2007     309.194E-06     306.703E-06
            1619            2007     309.194E-06     306.703E-06
            1624            2007     309.194E-06     306.703E-06
            1625            2007     309.194E-06     306.703E-06
            1621            2008     323.403E-06     313.472E-06
            1625            2008     323.403E-06     313.472E-06
            1626            2008     323.403E-06     313.472E-06
            1620            2008     323.403E-06     313.472E-06
            1626            2009     340.317E-06     330.435E-06
            1621            2009     340.317E-06     330.435E-06
            1627            2009     340.317E-06     330.435E-06
            1622            2009     340.317E-06     330.435E-06
            1623            2010     278.376E-06     265.088E-06
            1628            2010     278.376E-06     265.088E-06
            1629            2010     278.376E-06     265.088E-06
            1624            2010     278.376E-06     265.088E-06
            1624            2011     277.145E-06     258.109E-06
            1630            2011     277.145E-06     258.109E-06
            1625            2011     277.145E-06     258.109E-06
            1629            2011     277.145E-06     258.109E-06
            1630            2012     309.763E-06     294.481E-06
            1631            2012     309.763E-06     294.481E-06
            1625            2012     309.763E-06     294.481E-06
            1626            2012     309.763E-06     294.481E-06
            1631            2013     336.654E-06     330.811E-06
            1632            2013     336.654E-06     330.811E-06
            1627            2013     336.654E-06     330.811E-06
            1626            2013     336.654E-06     330.811E-06
            1628            2014     168.109E-06     183.638E-06
            1633            2014     168.109E-06     183.638E-06
            1634            2014     168.109E-06     183.638E-06
            1629            2014     168.109E-06     183.638E-06
            1629            2015     203.454E-06     216.928E-06
            1635            2015     203.454E-06     216.928E-06
            1630            2015     203.454E-06     216.928E-06
            1634            2015     203.454E-06     216.928E-06
            1635            2016     274.166E-06     282.384E-06
            1636            2016     274.166E-06     282.384E-06
            1630            2016     274.166E-06     282.384E-06
            1631            2016     274.166E-06     282.384E-06
            1636            2017     323.061E-06     324.742E-06
            1637            2017     323.061E-06     324.742E-06
            1632            2017     323.061E-06     324.742E-06
            1631            2017     323.061E-06     324.742E-06
            1634            2018     121.942E-06     107.240E-06
            1638            2018     121.942E-06     107.240E-06
            1633            2018     121.942E-06     107.240E-06
            1639            2018     121.942E-06     107.240E-06
            1640            2019     179.501E-06     173.225E-06
            1634            2019     179.501E-06     173.225E-06
            1635            2019     179.501E-06     173.225E-06
            1639            2019     179.501E-06     173.225E-06
            1635            2020     265.593E-06     264.713E-06
            1640            2020     265.593E-06     264.713E-06
            1636            2020     265.593E-06     264.713E-06
            1641            2020     265.593E-06     264.713E-06
            1642            2021     323.963E-06     319.155E-06
            1636            2021     323.963E-06     319.155E-06
            1637            2021     323.963E-06     319.155E-06
            1641            2021     323.963E-06     319.155E-06
            1643            2022     96.1412E-06     119.650E-06
            1639            2022     96.1412E-06     119.650E-06
            1644            2022     96.1412E-06     119.650E-06
            1638            2022     96.1412E-06     119.650E-06
            1639            2023     162.097E-06     170.795E-06
            1645            2023     162.097E-06     170.795E-06
            1640            2023     162.097E-06     170.795E-06
            1644            2023     162.097E-06     170.795E-06
            1640            2024     256.476E-06     257.073E-06
            1641            2024     256.476E-06     257.073E-06
            1645            2024     256.476E-06     257.073E-06
            1646            2024     256.476E-06     257.073E-06
            1641            2025     321.553E-06     315.907E-06
            1647            2025     321.553E-06     315.907E-06
            1646            2025     321.553E-06     315.907E-06
            1642            2025     321.553E-06     315.907E-06
            1654            2026         1.29871         1.36905
            1648            2026         1.29871         1.36905
            1653            2026         1.29871         1.36905
            1649            2026         1.29871         1.36905
            1650            2027         1.10143         1.18208
            1654            2027         1.10143         1.18208
            1649            2027         1.10143         1.18208
            1655            2027         1.10143         1.18208
            1655            2028     813.361E-03     862.460E-03
            1651            2028     813.361E-03     862.460E-03
            1656            2028     813.361E-03     862.460E-03
            1650            2028     813.361E-03     862.460E-03
            1652            2029     491.175E-03     513.839E-03
            1657            2029     491.175E-03     513.839E-03
            1651            2029     491.175E-03     513.839E-03
            1656            2029     491.175E-03     513.839E-03
            1653            2030         1.39510         1.43663
            1654            2030         1.39510         1.43663
            1659            2030         1.39510         1.43663
            1658            2030         1.39510         1.43663
            1659            2031         1.20908         1.25881
            1660            2031         1.20908         1.25881
            1654            2031         1.20908         1.25881
            1655            2031         1.20908         1.25881
            1655            2032     905.816E-03     925.788E-03
            1656            2032     905.816E-03     925.788E-03
            1661            2032     905.816E-03     925.788E-03
            1660            2032     905.816E-03     925.788E-03
            1661            2033     545.206E-03     564.630E-03
            1656            2033     545.206E-03     564.630E-03
            1662            2033     545.206E-03     564.630E-03
            1657            2033     545.206E-03     564.630E-03
            1663            2034         1.56345         1.46111
            1658            2034         1.56345         1.46111
            1659            2034         1.56345         1.46111
            1664            2034         1.56345         1.46111
            1659            2035         1.37890         1.26941
            1660            2035         1.37890         1.26941
            1664            2035         1.37890         1.26941
            1665            2035         1.37890         1.26941
            1660            2036         1.04052     953.437E-03
            1661            2036         1.04052     953.437E-03
            1666            2036         1.04052     953.437E-03
            1665            2036         1.04052     953.437E-03
            1662            2037     601.054E-03     579.189E-03
            1661            2037     601.054E-03     579.189E-03
            1666            2037     601.054E-03     579.189E-03
            1667            2037     601.054E-03     579.189E-03
            1668            2038         1.55465         1.58580
            1664            2038         1.55465         1.58580
            1669            2038         1.55465         1.58580
            1663            2038         1.55465         1.58580
            1669            2039         1.30419         1.32688
            1670            2039         1.30419         1.32688
            1664            2039         1.30419         1.32688
            1665            2039         1.30419         1.32688
            1666            2040     974.014E-03     967.481E-03
            1670            2040     974.014E-03     967.481E-03
            1665            2040     974.014E-03     967.481E-03
            1671            2040     974.014E-03     967.481E-03
            1667            2041     572.070E-03     564.995E-03
            1666            2041     572.070E-03     564.995E-03
            1671            2041     572.070E-03     564.995E-03
            1672            2041     572.070E-03     564.995E-03
            1833            2162     868.285E-03     870.263E-03
            1838            2162     868.285E-03     870.263E-03
            1834            2162     868.285E-03     870.263E-03
            1839            2162     868.285E-03     870.263E-03
            1839            2163         1.06697         1.07921
            1834            2163         1.06697         1.07921
            1840            2163         1.06697         1.07921
            1835            2163         1.06697         1.07921
            1840            2164         1.27557         1.29634
            1835            2164         1.27557         1.29634
            1836            2164         1.27557         1.29634
            1841            2164         1.27557         1.29634
            1841            2165         1.41953         1.44571
            1842            2165         1.41953         1.44571
            1837            2165         1.41953         1.44571
            1836            2165         1.41953         1.44571
            1843            2166     893.241E-03     894.491E-03
            1839            2166     893.241E-03     894.491E-03
            1844            2166     893.241E-03     894.491E-03
            1838            2166     893.241E-03     894.491E-03
            1840            2167         1.03093         1.06470
            1845            2167         1.03093         1.06470
            1844            2167         1.03093         1.06470
            1839            2167         1.03093         1.06470
            1841            2168         1.17764         1.26062
            1845            2168         1.17764         1.26062
            1840            2168         1.17764         1.26062
            1846            2168         1.17764         1.26062
            1846            2169         1.31993         1.41443
            1847            2169         1.31993         1.41443
            1842            2169         1.31993         1.41443
            1841            2169         1.31993         1.41443
            1849            2170     856.963E-03     835.721E-03
            1848            2170     856.963E-03     835.721E-03
            1844            2170     856.963E-03     835.721E-03
            1843            2170     856.963E-03     835.721E-03
            1850            2171         1.02515     992.584E-03
            1849            2171         1.02515     992.584E-03
            1844            2171         1.02515     992.584E-03
            1845            2171         1.02515     992.584E-03
            1850            2172         1.18572         1.16114
            1845            2172         1.18572         1.16114
            1846            2172         1.18572         1.16114
            1851            2172         1.18572         1.16114
            1851            2173         1.33243         1.32513
            1852            2173         1.33243         1.32513
            1846            2173         1.33243         1.32513
            1847            2173         1.33243         1.32513
            1849            2174     842.424E-03     829.746E-03
            1853            2174     842.424E-03     829.746E-03
            1854            2174     842.424E-03     829.746E-03
            1848            2174     842.424E-03     829.746E-03
            1849            2175     989.019E-03     935.666E-03
            1855            2175     989.019E-03     935.666E-03
            1854            2175     989.019E-03     935.666E-03
            1850            2175     989.019E-03     935.666E-03
            1851            2176         1.14566         1.07011
            1850            2176         1.14566         1.07011
            1856            2176         1.14566         1.07011
            1855            2176         1.14566         1.07011
            1851            2177         1.20525         1.10911
            1856            2177         1.20525         1.10911
            1857            2177         1.20525         1.10911
            1852            2177         1.20525         1.10911
            1858            2178     97.9406E-03     105.004E-03
            1863            2178     97.9406E-03     105.004E-03
            1859            2178     97.9406E-03     105.004E-03
            1864            2178     97.9406E-03     105.004E-03
            1860            2179     158.384E-03     159.536E-03
            1864            2179     158.384E-03     159.536E-03
            1859            2179     158.384E-03     159.536E-03
            1865            2179     158.384E-03     159.536E-03
            1865            2180     209.195E-03     209.469E-03
            1866            2180     209.195E-03     209.469E-03
            1860            2180     209.195E-03     209.469E-03
            1861            2180     209.195E-03     209.469E-03
            1867            2181     246.392E-03     244.980E-03
            1866            2181     246.392E-03     244.980E-03
            1862            2181     246.392E-03     244.980E-03
            1861            2181     246.392E-03     244.980E-03
            1868            2182     95.9064E-03     109.393E-03
            1869            2182     95.9064E-03     109.393E-03
            1863            2182     95.9064E-03     109.393E-03
            1864            2182     95.9064E-03     109.393E-03
            1870            2183     182.408E-03     189.003E-03
            1864            2183     182.408E-03     189.003E-03
            1869            2183     182.408E-03     189.003E-03
            1865            2183     182.408E-03     189.003E-03
            1865            2184     250.410E-03     254.102E-03
            1870            2184     250.410E-03     254.102E-03
            1866            2184     250.410E-03     254.102E-03
            1871            2184     250.410E-03     254.102E-03
            1867            2185     303.317E-03     299.946E-03
            1871            2185     303.317E-03     299.946E-03
            1872            2185     303.317E-03     299.946E-03
            1866            2185     303.317E-03     299.946E-03
            1869            2186     113.878E-03     118.014E-03
            1874            2186     113.878E-03     118.014E-03
            1868            2186     113.878E-03     118.014E-03
            1873            2186     113.878E-03     118.014E-03
            1870            2187     193.198E-03     198.667E-03
            1875            2187     193.198E-03     198.667E-03
            1874            2187     193.198E-03     198.667E-03
            1869            2187     193.198E-03     198.667E-03
            1876            2188     259.185E-03     264.104E-03
            1870            2188     259.185E-03     264.104E-03
            1871            2188     259.185E-03     264.104E-03
            1875            2188     259.185E-03     264.104E-03
            1877            2189     305.225E-03     304.119E-03
            1871            2189     305.225E-03     304.119E-03
            1876            2189     305.225E-03     304.119E-03
            1872            2189     305.225E-03     304.119E-03
            1874            2190     173.421E-03     160.627E-03
            1873            2190     173.421E-03     160.627E-03
            1879            2190     173.421E-03     160.627E-03
            1878            2190     173.421E-03     160.627E-03
            1879            2191     220.519E-03     212.510E-03
            1875            2191     220.519E-03     212.510E-03
            1880            2191     220.519E-03     212.510E-03
            1874            2191     220.519E-03     212.510E-03
            1881            2192     273.504E-03     272.020E-03
            1880            2192     273.504E-03     272.020E-03
            1875            2192     273.504E-03     272.020E-03
            1876            2192     273.504E-03     272.020E-03
            1882            2193     308.546E-03     307.422E-03
            1877            2193     308.546E-03     307.422E-03
            1876            2193     308.546E-03     307.422E-03
            1881            2193     308.546E-03     307.422E-03
            1883            2194     218.058E-03     241.875E-03
            1879            2194     218.058E-03     241.875E-03
            1884            2194     218.058E-03     241.875E-03
            1878            2194     218.058E-03     241.875E-03
            1879            2195     242.075E-03     262.079E-03
            1880            2195     242.075E-03     262.079E-03
            1884            2195     242.075E-03     262.079E-03
            1885            2195     242.075E-03     262.079E-03
            1886            2196     283.378E-03     292.569E-03
            1885            2196     283.378E-03     292.569E-03
            1880            2196     283.378E-03     292.569E-03
            1881            2196     283.378E-03     292.569E-03
            1887            2197     310.725E-03     314.387E-03
            1882            2197     310.725E-03     314.387E-03
            1881            2197     310.725E-03     314.387E-03
            1886            2197     310.725E-03     314.387E-03
            1884            2198     315.101E-03     300.232E-03
            1883            2198     315.101E-03     300.232E-03
            1888            2198     315.101E-03     300.232E-03
            1889            2198     315.101E-03     300.232E-03
            1890            2199     310.707E-03     293.807E-03
            1889            2199     310.707E-03     293.807E-03
            1884            2199     310.707E-03     293.807E-03
            1885            2199     310.707E-03     293.807E-03
            1891            2200     319.341E-03     304.233E-03
            1885            2200     319.341E-03     304.233E-03
            1886            2200     319.341E-03     304.233E-03
            1890            2200     319.341E-03     304.233E-03
            1887            2201     324.328E-03     320.206E-03
            1886            2201     324.328E-03     320.206E-03
            1891            2201     324.328E-03     320.206E-03
            1892            2201     324.328E-03     320.206E-03
            1889            2202     373.739E-03     373.911E-03
            1893            2202     373.739E-03     373.911E-03
            1888            2202     373.739E-03     373.911E-03
            1894            2202     373.739E-03     373.911E-03
            1889            2203     337.256E-03     333.014E-03
            1894            2203     337.256E-03     333.014E-03
            1895            2203     337.256E-03     333.014E-03
            1890            2203     337.256E-03     333.014E-03
            1890            2204     331.695E-03     320.239E-03
            1896            2204     331.695E-03     320.239E-03
            1891            2204     331.695E-03     320.239E-03
            1895            2204     331.695E-03     320.239E-03
            1897            2205     327.678E-03     318.843E-03
            1896            2205     327.678E-03     318.843E-03
            1892            2205     327.678E-03     318.843E-03
            1891            2205     327.678E-03     318.843E-03
            1899            2206     325.871E-03     377.873E-03
            1894            2206     325.871E-03     377.873E-03
            1893            2206     325.871E-03     377.873E-03
            1898            2206     325.871E-03     377.873E-03
            1900            2207     307.209E-03     361.177E-03
            1894            2207     307.209E-03     361.177E-03
            1899            2207     307.209E-03     361.177E-03
            1895            2207     307.209E-03     361.177E-03
            1896            2208     308.973E-03     332.420E-03
            1895            2208     308.973E-03     332.420E-03
            1901            2208     308.973E-03     332.420E-03
            1900            2208     308.973E-03     332.420E-03
            1901            2209     317.937E-03     319.803E-03
            1896            2209     317.937E-03     319.803E-03
            1897            2209     317.937E-03     319.803E-03
            1902            2209     317.937E-03     319.803E-03
            1904            2210     334.843E-03     330.178E-03
            1903            2210     334.843E-03     330.178E-03
            1898            2210     334.843E-03     330.178E-03
            1899            2210     334.843E-03     330.178E-03
            1904            2211     346.066E-03     350.122E-03
            1900            2211     346.066E-03     350.122E-03
            1899            2211     346.066E-03     350.122E-03
            1905            2211     346.066E-03     350.122E-03
            1906            2212     330.454E-03     331.624E-03
            1900            2212     330.454E-03     331.624E-03
            1905            2212     330.454E-03     331.624E-03
            1901            2212     330.454E-03     331.624E-03
            1902            2213     325.708E-03     324.096E-03
            1901            2213     325.708E-03     324.096E-03
            1906            2213     325.708E-03     324.096E-03
            1907            2213     325.708E-03     324.096E-03
            1903            2214     386.263E-03     372.838E-03
            1904            2214     386.263E-03     372.838E-03
            1908            2214     386.263E-03     372.838E-03
            1909            2214     386.263E-03     372.838E-03
            1904            2215     379.300E-03     371.640E-03
            1909            2215     379.300E-03     371.640E-03
            1910            2215     379.300E-03     371.640E-03
            1905            2215     379.300E-03     371.640E-03
            1910            2216     358.310E-03     352.811E-03
            1911            2216     358.310E-03     352.811E-03
            1906            2216     358.310E-03     352.811E-03
            1905            2216     358.310E-03     352.811E-03
            1912            2217     336.738E-03     331.489E-03
            1906            2217     336.738E-03     331.489E-03
            1907            2217     336.738E-03     331.489E-03
            1911            2217     336.738E-03     331.489E-03
            1914            2218     418.549E-03     460.611E-03
            1913            2218     418.549E-03     460.611E-03
            1909            2218     418.549E-03     460.611E-03
            1908            2218     418.549E-03     460.611E-03
            1915            2219     388.764E-03     431.334E-03
            1910            2219     388.764E-03     431.334E-03
            1914            2219     388.764E-03     431.334E-03
            1909            2219     388.764E-03     431.334E-03
            1916            2220     368.375E-03     389.990E-03
            1910            2220     368.375E-03     389.990E-03
            1915            2220     368.375E-03     389.990E-03
            1911            2220     368.375E-03     389.990E-03
            1911            2221     339.905E-03     348.285E-03
            1917            2221     339.905E-03     348.285E-03
            1916            2221     339.905E-03     348.285E-03
            1912            2221     339.905E-03     348.285E-03
            1914            2222     540.807E-03     516.903E-03
            1919            2222     540.807E-03     516.903E-03
            1918            2222     540.807E-03     516.903E-03
            1913            2222     540.807E-03     516.903E-03
            1920            2223     489.514E-03     458.893E-03
            1915            2223     489.514E-03     458.893E-03
            1914            2223     489.514E-03     458.893E-03
            1919            2223     489.514E-03     458.893E-03
            1920            2224     428.412E-03     401.323E-03
            1916            2224     428.412E-03     401.323E-03
            1915            2224     428.412E-03     401.323E-03
            1921            2224     428.412E-03     401.323E-03
            1916            2225     361.767E-03     356.624E-03
            1921            2225     361.767E-03     356.624E-03
            1922            2225     361.767E-03     356.624E-03
            1917            2225     361.767E-03     356.624E-03
            1919            2226     603.699E-03     601.380E-03
            1923            2226     603.699E-03     601.380E-03
            1924            2226     603.699E-03     601.380E-03
            1918            2226     603.699E-03     601.380E-03
            1919            2227     516.982E-03     508.555E-03
            1920            2227     516.982E-03     508.555E-03
            1925            2227     516.982E-03     508.555E-03
            1924            2227     516.982E-03     508.555E-03
            1920            2228     440.754E-03     421.399E-03
            1921            2228     440.754E-03     421.399E-03
            1926            2228     440.754E-03     421.399E-03
            1925            2228     440.754E-03     421.399E-03
            1921            2229     364.282E-03     352.334E-03
            1922            2229     364.282E-03     352.334E-03
            1927            2229     364.282E-03     352.334E-03
            1926            2229     364.282E-03     352.334E-03
            1924            2230     539.748E-03     633.771E-03
            1928            2230     539.748E-03     633.771E-03
            1923            2230     539.748E-03     633.771E-03
            1929            2230     539.748E-03     633.771E-03
            1929            2231     464.755E-03     563.585E-03
            1924            2231     464.755E-03     563.585E-03
            1930            2231     464.755E-03     563.585E-03
            1925            2231     464.755E-03     563.585E-03
            1931            2232     398.442E-03     445.818E-03
            1925            2232     398.442E-03     445.818E-03
            1926            2232     398.442E-03     445.818E-03
            1930            2232     398.442E-03     445.818E-03
            1932            2233     347.304E-03     356.174E-03
            1927            2233     347.304E-03     356.174E-03
            1931            2233     347.304E-03     356.174E-03
            1926            2233     347.304E-03     356.174E-03
            1929            2234     578.293E-03     563.523E-03
            1934            2234     578.293E-03     563.523E-03
            1933            2234     578.293E-03     563.523E-03
            1928            2234     578.293E-03     563.523E-03
            1930            2235     532.687E-03     535.881E-03
            1935            2235     532.687E-03     535.881E-03
            1929            2235     532.687E-03     535.881E-03
            1934            2235     532.687E-03     535.881E-03
            1936            2236     437.399E-03     438.563E-03
            1935            2236     437.399E-03     438.563E-03
            1930            2236     437.399E-03     438.563E-03
            1931            2236     437.399E-03     438.563E-03
            1937            2237     363.574E-03     360.388E-03
            1936            2237     363.574E-03     360.388E-03
            1932            2237     363.574E-03     360.388E-03
            1931            2237     363.574E-03     360.388E-03
            1939            2238     611.922E-03     615.109E-03
            1938            2238     611.922E-03     615.109E-03
            1933            2238     611.922E-03     615.109E-03
            1934            2238     611.922E-03     615.109E-03
            1935            2239     564.070E-03     567.235E-03
            1934            2239     564.070E-03     567.235E-03
            1940            2239     564.070E-03     567.235E-03
            1939            2239     564.070E-03     567.235E-03
            1936            2240     475.856E-03     472.208E-03
            1940            2240     475.856E-03     472.208E-03
            1941            2240     475.856E-03     472.208E-03
            1935            2240     475.856E-03     472.208E-03
            1942            2241     381.522E-03     376.259E-03
            1937            2241     381.522E-03     376.259E-03
            1936            2241     381.522E-03     376.259E-03
            1941            2241     381.522E-03     376.259E-03
            1938            2242     656.813E-03     665.190E-03
            1943            2242     656.813E-03     665.190E-03
            1944            2242     656.813E-03     665.190E-03
            1939            2242     656.813E-03     665.190E-03
            1945            2243     582.617E-03     593.177E-03
            1940            2243     582.617E-03     593.177E-03
            1944            2243     582.617E-03     593.177E-03
            1939            2243     582.617E-03     593.177E-03
            1940            2244     495.181E-03     495.468E-03
            1941            2244     495.181E-03     495.468E-03
            1946            2244     495.181E-03     495.468E-03
            1945            2244     495.181E-03     495.468E-03
            1941            2245     395.619E-03     392.533E-03
            1942            2245     395.619E-03     392.533E-03
            1946            2245     395.619E-03     392.533E-03
            1947            2245     395.619E-03     392.533E-03
            1949            2246     705.515E-03     753.559E-03
            1944            2246     705.515E-03     753.559E-03
            1948            2246     705.515E-03     753.559E-03
            1943            2246     705.515E-03     753.559E-03
            1950            2247     613.497E-03     660.748E-03
            1949            2247     613.497E-03     660.748E-03
            1945            2247     613.497E-03     660.748E-03
            1944            2247     613.497E-03     660.748E-03
            1945            2248     515.784E-03     535.434E-03
            1951            2248     515.784E-03     535.434E-03
            1950            2248     515.784E-03     535.434E-03
            1946            2248     515.784E-03     535.434E-03
            1947            2249     400.043E-03     411.433E-03
            1946            2249     400.043E-03     411.433E-03
            1952            2249     400.043E-03     411.433E-03
            1951            2249     400.043E-03     411.433E-03
            1948            2250     839.651E-03     817.825E-03
            1949            2250     839.651E-03     817.825E-03
            1954            2250     839.651E-03     817.825E-03
            1953            2250     839.651E-03     817.825E-03
            1950            2251     735.024E-03     702.593E-03
            1949            2251     735.024E-03     702.593E-03
            1955            2251     735.024E-03     702.593E-03
            1954            2251     735.024E-03     702.593E-03
            1950            2252     594.122E-03     554.944E-03
            1956            2252     594.122E-03     554.944E-03
            1951            2252     594.122E-03     554.944E-03
            1955            2252     594.122E-03     554.944E-03
            1956            2253     430.055E-03     421.375E-03
            1951            2253     430.055E-03     421.375E-03
            1957            2253     430.055E-03     421.375E-03
            1952            2253     430.055E-03     421.375E-03
            1958            2254     911.156E-03     902.132E-03
            1954            2254     911.156E-03     902.132E-03
            1953            2254     911.156E-03     902.132E-03
            1959            2254     911.156E-03     902.132E-03
            1960            2255     767.182E-03     754.399E-03
            1955            2255     767.182E-03     754.399E-03
            1959            2255     767.182E-03     754.399E-03
            1954            2255     767.182E-03     754.399E-03
            1961            2256     602.532E-03     575.050E-03
            1955            2256     602.532E-03     575.050E-03
            1956            2256     602.532E-03     575.050E-03
            1960            2256     602.532E-03     575.050E-03
            1961            2257     428.309E-03     411.184E-03
            1957            2257     428.309E-03     411.184E-03
            1956            2257     428.309E-03     411.184E-03
            1962            2257     428.309E-03     411.184E-03
            1959            2258     810.731E-03     954.426E-03
            1963            2258     810.731E-03     954.426E-03
            1964            2258     810.731E-03     954.426E-03
            1958            2258     810.731E-03     954.426E-03
            1959            2259     674.839E-03     829.801E-03
            1960            2259     674.839E-03     829.801E-03
            1965            2259     674.839E-03     829.801E-03
            1964            2259     674.839E-03     829.801E-03
            1960            2260     528.753E-03     609.053E-03
            1965            2260     528.753E-03     609.053E-03
            1961            2260     528.753E-03     609.053E-03
            1966            2260     528.753E-03     609.053E-03
            1962            2261     396.418E-03     416.133E-03
            1961            2261     396.418E-03     416.133E-03
            1967            2261     396.418E-03     416.133E-03
            1966            2261     396.418E-03     416.133E-03
            1963            2262     870.127E-03     850.410E-03
            1968            2262     870.127E-03     850.410E-03
            1969            2262     870.127E-03     850.410E-03
            1964            2262     870.127E-03     850.410E-03
            1969            2263     770.740E-03     771.420E-03
            1970            2263     770.740E-03     771.420E-03
            1964            2263     770.740E-03     771.420E-03
            1965            2263     770.740E-03     771.420E-03
            1966            2264     590.720E-03     586.951E-03
            1971            2264     590.720E-03     586.951E-03
            1970            2264     590.720E-03     586.951E-03
            1965            2264     590.720E-03     586.951E-03
            1967            2265     423.887E-03     418.469E-03
            1972            2265     423.887E-03     418.469E-03
            1966            2265     423.887E-03     418.469E-03
            1971            2265     423.887E-03     418.469E-03
            1973            2266     897.772E-03     897.330E-03
            1969            2266     897.772E-03     897.330E-03
            1968            2266     897.772E-03     897.330E-03
            1974            2266     897.772E-03     897.330E-03
            1974            2267     804.019E-03     800.235E-03
            1969            2267     804.019E-03     800.235E-03
            1970            2267     804.019E-03     800.235E-03
            1975            2267     804.019E-03     800.235E-03
            1976            2268     639.771E-03     626.153E-03
            1970            2268     639.771E-03     626.153E-03
            1971            2268     639.771E-03     626.153E-03
            1975            2268     639.771E-03     626.153E-03
            1977            2269     450.352E-03     440.323E-03
            1971            2269     450.352E-03     440.323E-03
            1976            2269     450.352E-03     440.323E-03
            1972            2269     450.352E-03     440.323E-03
            1973            2270     925.651E-03     945.855E-03
            1978            2270     925.651E-03     945.855E-03
            1979            2270     925.651E-03     945.855E-03
            1974            2270     925.651E-03     945.855E-03
            1974            2271     802.362E-03     825.016E-03
            1980            2271     802.362E-03     825.016E-03
            1979            2271     802.362E-03     825.016E-03
            1975            2271     802.362E-03     825.016E-03
            1980            2272     649.041E-03     652.803E-03
            1976            2272     649.041E-03     652.803E-03
            1975            2272     649.041E-03     652.803E-03
            1981            2272     649.041E-03     652.803E-03
            1981            2273     464.494E-03     462.026E-03
            1976            2273     464.494E-03     462.026E-03
            1982            2273     464.494E-03     462.026E-03
            1977            2273     464.494E-03     462.026E-03
            1978            2274     974.666E-03         1.03472
            1983            2274     974.666E-03         1.03472
            1979            2274     974.666E-03         1.03472
            1984            2274     974.666E-03         1.03472
            1984            2275     834.025E-03     893.989E-03
            1979            2275     834.025E-03     893.989E-03
            1985            2275     834.025E-03     893.989E-03
            1980            2275     834.025E-03     893.989E-03
            1985            2276     671.236E-03     695.261E-03
            1986            2276     671.236E-03     695.261E-03
            1980            2276     671.236E-03     695.261E-03
            1981            2276     671.236E-03     695.261E-03
            1981            2277     468.600E-03     484.020E-03
            1982            2277     468.600E-03     484.020E-03
            1987            2277     468.600E-03     484.020E-03
            1986            2277     468.600E-03     484.020E-03
            1984            2278         1.12702         1.10142
            1989            2278         1.12702         1.10142
            1988            2278         1.12702         1.10142
            1983            2278         1.12702         1.10142
            1989            2279     978.493E-03     938.746E-03
            1990            2279     978.493E-03     938.746E-03
            1985            2279     978.493E-03     938.746E-03
            1984            2279     978.493E-03     938.746E-03
            1991            2280     765.568E-03     715.126E-03
            1985            2280     765.568E-03     715.126E-03
            1986            2280     765.568E-03     715.126E-03
            1990            2280     765.568E-03     715.126E-03
            1987            2281     504.321E-03     493.269E-03
            1991            2281     504.321E-03     493.269E-03
            1992            2281     504.321E-03     493.269E-03
            1986            2281     504.321E-03     493.269E-03
            1988            2282         1.20542         1.19152
            1989            2282         1.20542         1.19152
            1994            2282         1.20542         1.19152
            1993            2282         1.20542         1.19152
            1990            2283         1.01097     995.110E-03
            1994            2283         1.01097     995.110E-03
            1989            2283         1.01097     995.110E-03
            1995            2283         1.01097     995.110E-03
            1991            2284     767.444E-03     733.336E-03
            1995            2284     767.444E-03     733.336E-03
            1996            2284     767.444E-03     733.336E-03
            1990            2284     767.444E-03     733.336E-03
            1992            2285     497.173E-03     476.078E-03
            1996            2285     497.173E-03     476.078E-03
            1991            2285     497.173E-03     476.078E-03
            1997            2285     497.173E-03     476.078E-03
            1998            2286         1.07460         1.26362
            1994            2286         1.07460         1.26362
            1999            2286         1.07460         1.26362
            1993            2286         1.07460         1.26362
            1995            2287     880.719E-03         1.08859
            1999            2287     880.719E-03         1.08859
            2000            2287     880.719E-03         1.08859
            1994            2287     880.719E-03         1.08859
            1996            2288     666.013E-03     778.652E-03
            2000            2288     666.013E-03     778.652E-03
            1995            2288     666.013E-03     778.652E-03
            2001            2288     666.013E-03     778.652E-03
            2002            2289     453.130E-03     485.690E-03
            2001            2289     453.130E-03     485.690E-03
            1996            2289     453.130E-03     485.690E-03
            1997            2289     453.130E-03     485.690E-03
            2003            2290         1.15728         1.14446
            2004            2290         1.15728         1.14446
            1998            2290         1.15728         1.14446
            1999            2290         1.15728         1.14446
            1999            2291         1.01477         1.01201
            2004            2291         1.01477         1.01201
            2005            2291         1.01477         1.01201
            2000            2291         1.01477         1.01201
            2000            2292     761.262E-03     747.127E-03
            2001            2292     761.262E-03     747.127E-03
            2006            2292     761.262E-03     747.127E-03
            2005            2292     761.262E-03     747.127E-03
            2007            2293     498.063E-03     492.059E-03
            2006            2293     498.063E-03     492.059E-03
            2002            2293     498.063E-03     492.059E-03
            2001            2293     498.063E-03     492.059E-03
            2008            2294         1.20464         1.15719
            2009            2294         1.20464         1.15719
            2003            2294         1.20464         1.15719
            2004            2294         1.20464         1.15719
            2005            2295         1.06132         1.01365
            2010            2295         1.06132         1.01365
            2009            2295         1.06132         1.01365
            2004            2295         1.06132         1.01365
            2006            2296     820.236E-03     777.063E-03
            2011            2296     820.236E-03     777.063E-03
            2005            2296     820.236E-03     777.063E-03
            2010            2296     820.236E-03     777.063E-03
            2006            2297     532.107E-03     511.867E-03
            2011            2297     532.107E-03     511.867E-03
            2012            2297     532.107E-03     511.867E-03
            2007            2297     532.107E-03     511.867E-03
            2014            2298         1.15541         1.28007
            2013            2298         1.15541         1.28007
            2008            2298         1.15541         1.28007
            2009            2298         1.15541         1.28007
            2015            2299     985.814E-03         1.11465
            2014            2299     985.814E-03         1.11465
            2010            2299     985.814E-03         1.11465
            2009            2299     985.814E-03         1.11465
            2015            2300     786.569E-03     855.068E-03
            2011            2300     786.569E-03     855.068E-03
            2010            2300     786.569E-03     855.068E-03
            2016            2300     786.569E-03     855.068E-03
            2011            2301     522.265E-03     555.349E-03
            2016            2301     522.265E-03     555.349E-03
            2012            2301     522.265E-03     555.349E-03
            2017            2301     522.265E-03     555.349E-03
            2013            2302         1.36274         1.30494
            2018            2302         1.36274         1.30494
            2014            2302         1.36274         1.30494
            2019            2302         1.36274         1.30494
            2019            2303         1.18089         1.10930
            2015            2303         1.18089         1.10930
            2014            2303         1.18089         1.10930
            2020            2303         1.18089         1.10930
            2016            2304     908.386E-03     841.227E-03
            2015            2304     908.386E-03     841.227E-03
            2021            2304     908.386E-03     841.227E-03
            2020            2304     908.386E-03     841.227E-03
            2021            2305     567.388E-03     554.663E-03
            2016            2305     567.388E-03     554.663E-03
            2017            2305     567.388E-03     554.663E-03
            2022            2305     567.388E-03     554.663E-03
            2018            2306         1.43313         1.42310
            2019            2306         1.43313         1.42310
            2024            2306         1.43313         1.42310
            2023            2306         1.43313         1.42310
            2024            2307         1.20340         1.18593
            2020            2307         1.20340         1.18593
            2025            2307         1.20340         1.18593
            2019            2307         1.20340         1.18593
            2020            2308     903.489E-03     863.278E-03
            2026            2308     903.489E-03     863.278E-03
            2021            2308     903.489E-03     863.278E-03
            2025            2308     903.489E-03     863.278E-03
            2021            2309     556.865E-03     533.933E-03
            2026            2309     556.865E-03     533.933E-03
            2027            2309     556.865E-03     533.933E-03
            2022            2309     556.865E-03     533.933E-03
            2151            2384         1.40964         1.43561
            2146            2384         1.40964         1.43561
            2150            2384         1.40964         1.43561
            2145            2384         1.40964         1.43561
            2146            2385         1.26849         1.28877
            2151            2385         1.26849         1.28877
            2147            2385         1.26849         1.28877
            2152            2385         1.26849         1.28877
            2147            2386         1.06117         1.07254
            2148            2386         1.06117         1.07254
            2153            2386         1.06117         1.07254
            2152            2386         1.06117         1.07254
            2153            2387     864.837E-03     865.840E-03
            2154            2387     864.837E-03     865.840E-03
            2149            2387     864.837E-03     865.840E-03
            2148            2387     864.837E-03     865.840E-03
            2150            2388         1.31026         1.40471
            2156            2388         1.31026         1.40471
            2155            2388         1.31026         1.40471
            2151            2388         1.31026         1.40471
            2157            2389         1.17447         1.25527
            2151            2389         1.17447         1.25527
            2152            2389         1.17447         1.25527
            2156            2389         1.17447         1.25527
            2158            2390         1.03024         1.06162
            2153            2390         1.03024         1.06162
            2152            2390         1.03024         1.06162
            2157            2390         1.03024         1.06162
            2159            2391     893.082E-03     892.891E-03
            2154            2391     893.082E-03     892.891E-03
            2158            2391     893.082E-03     892.891E-03
            2153            2391     893.082E-03     892.891E-03
            2161            2392         1.32330         1.31660
            2155            2392         1.32330         1.31660
            2156            2392         1.32330         1.31660
            2160            2392         1.32330         1.31660
            2162            2393         1.18301         1.15738
            2157            2393         1.18301         1.15738
            2161            2393         1.18301         1.15738
            2156            2393         1.18301         1.15738
            2163            2394         1.02455     990.417E-03
            2162            2394         1.02455     990.417E-03
            2158            2394         1.02455     990.417E-03
            2157            2394         1.02455     990.417E-03
            2159            2395     856.898E-03     834.437E-03
            2164            2395     856.898E-03     834.437E-03
            2163            2395     856.898E-03     834.437E-03
            2158            2395     856.898E-03     834.437E-03
            2160            2396         1.20296         1.10721
            2161            2396         1.20296         1.10721
            2166            2396         1.20296         1.10721
            2165            2396         1.20296         1.10721
            2162            2397         1.14531         1.07271
            2161            2397         1.14531         1.07271
            2166            2397         1.14531         1.07271
            2167            2397         1.14531         1.07271
            2162            2398     989.708E-03     939.570E-03
            2163            2398     989.708E-03     939.570E-03
            2167            2398     989.708E-03     939.570E-03
            2168            2398     989.708E-03     939.570E-03
            2164            2399     843.605E-03     832.692E-03
            2168            2399     843.605E-03     832.692E-03
            2169            2399     843.605E-03     832.692E-03
            2163            2399     843.605E-03     832.692E-03
            2171            2400     797.941E-03     778.783E-03
            2170            2400     797.941E-03     778.783E-03
            2176            2400     797.941E-03     778.783E-03
            2175            2400     797.941E-03     778.783E-03
            2172            2401     869.593E-03     845.157E-03
            2171            2401     869.593E-03     845.157E-03
            2176            2401     869.593E-03     845.157E-03
            2177            2401     869.593E-03     845.157E-03
            2172            2402     937.861E-03     921.707E-03
            2178            2402     937.861E-03     921.707E-03
            2173            2402     937.861E-03     921.707E-03
            2177            2402     937.861E-03     921.707E-03
            2179            2403         1.01922         1.02014
            2174            2403         1.01922         1.02014
            2173            2403         1.01922         1.02014
            2178            2403         1.01922         1.02014
            2180            2404     790.193E-03     777.323E-03
            2175            2404     790.193E-03     777.323E-03
            2181            2404     790.193E-03     777.323E-03
            2176            2404     790.193E-03     777.323E-03
            2182            2405     845.883E-03     799.013E-03
            2181            2405     845.883E-03     799.013E-03
            2176            2405     845.883E-03     799.013E-03
            2177            2405     845.883E-03     799.013E-03
            2178            2406     916.334E-03     843.323E-03
            2183            2406     916.334E-03     843.323E-03
            2182            2406     916.334E-03     843.323E-03
            2177            2406     916.334E-03     843.323E-03
            2179            2407     915.430E-03     818.722E-03
            2183            2407     915.430E-03     818.722E-03
            2178            2407     915.430E-03     818.722E-03
            2184            2407     915.430E-03     818.722E-03
            2181            2408     759.604E-03     776.028E-03
            2185            2408     759.604E-03     776.028E-03
            2186            2408     759.604E-03     776.028E-03
            2180            2408     759.604E-03     776.028E-03
            2187            2409     751.237E-03     816.326E-03
            2182            2409     751.237E-03     816.326E-03
            2181            2409     751.237E-03     816.326E-03
            2186            2409     751.237E-03     816.326E-03
            2188            2410     740.731E-03     890.283E-03
            2182            2410     740.731E-03     890.283E-03
            2187            2410     740.731E-03     890.283E-03
            2183            2410     740.731E-03     890.283E-03
            2189            2411     780.423E-03     933.485E-03
            2183            2411     780.423E-03     933.485E-03
            2184            2411     780.423E-03     933.485E-03
            2188            2411     780.423E-03     933.485E-03
            2190            2412     795.750E-03     774.732E-03
            2185            2412     795.750E-03     774.732E-03
            2191            2412     795.750E-03     774.732E-03
            2186            2412     795.750E-03     774.732E-03
            2187            2413     797.489E-03     770.885E-03
            2191            2413     797.489E-03     770.885E-03
            2186            2413     797.489E-03     770.885E-03
            2192            2413     797.489E-03     770.885E-03
            2193            2414     803.978E-03     794.980E-03
            2188            2414     803.978E-03     794.980E-03
            2192            2414     803.978E-03     794.980E-03
            2187            2414     803.978E-03     794.980E-03
            2188            2415     892.391E-03     893.719E-03
            2189            2415     892.391E-03     893.719E-03
            2193            2415     892.391E-03     893.719E-03
            2194            2415     892.391E-03     893.719E-03
            2190            2416     788.188E-03     777.581E-03
            2195            2416     788.188E-03     777.581E-03
            2196            2416     788.188E-03     777.581E-03
            2191            2416     788.188E-03     777.581E-03
            2196            2417     769.258E-03     731.413E-03
            2192            2417     769.258E-03     731.413E-03
            2197            2417     769.258E-03     731.413E-03
            2191            2417     769.258E-03     731.413E-03
            2197            2418     743.105E-03     699.267E-03
            2192            2418     743.105E-03     699.267E-03
            2198            2418     743.105E-03     699.267E-03
            2193            2418     743.105E-03     699.267E-03
            2199            2419     753.562E-03     714.773E-03
            2193            2419     753.562E-03     714.773E-03
            2194            2419     753.562E-03     714.773E-03
            2198            2419     753.562E-03     714.773E-03
            2195            2420     754.917E-03     763.923E-03
            2201            2420     754.917E-03     763.923E-03
            2200            2420     754.917E-03     763.923E-03
            2196            2420     754.917E-03     763.923E-03
            2197            2421     682.044E-03     704.636E-03
            2202            2421     682.044E-03     704.636E-03
            2196            2421     682.044E-03     704.636E-03
            2201            2421     682.044E-03     704.636E-03
            2202            2422     576.466E-03     625.083E-03
            2203            2422     576.466E-03     625.083E-03
            2197            2422     576.466E-03     625.083E-03
            2198            2422     576.466E-03     625.083E-03
            2203            2423     517.385E-03     575.374E-03
            2198            2423     517.385E-03     575.374E-03
            2204            2423     517.385E-03     575.374E-03
            2199            2423     517.385E-03     575.374E-03
            2200            2424     749.671E-03     747.046E-03
            2205            2424     749.671E-03     747.046E-03
            2206            2424     749.671E-03     747.046E-03
            2201            2424     749.671E-03     747.046E-03
            2207            2425     658.052E-03     655.237E-03
            2201            2425     658.052E-03     655.237E-03
            2206            2425     658.052E-03     655.237E-03
            2202            2425     658.052E-03     655.237E-03
            2203            2426     523.837E-03     505.160E-03
            2208            2426     523.837E-03     505.160E-03
            2202            2426     523.837E-03     505.160E-03
            2207            2426     523.837E-03     505.160E-03
            2209            2427     408.740E-03     377.978E-03
            2204            2427     408.740E-03     377.978E-03
            2208            2427     408.740E-03     377.978E-03
            2203            2427     408.740E-03     377.978E-03
            2205            2428     742.552E-03     739.440E-03
            2211            2428     742.552E-03     739.440E-03
            2206            2428     742.552E-03     739.440E-03
            2210            2428     742.552E-03     739.440E-03
            2211            2429     624.955E-03     636.218E-03
            2206            2429     624.955E-03     636.218E-03
            2212            2429     624.955E-03     636.218E-03
            2207            2429     624.955E-03     636.218E-03
            2213            2430     459.220E-03     471.607E-03
            2212            2430     459.220E-03     471.607E-03
            2207            2430     459.220E-03     471.607E-03
            2208            2430     459.220E-03     471.607E-03
            2208            2431     263.105E-03     274.570E-03
            2209            2431     263.105E-03     274.570E-03
            2214            2431     263.105E-03     274.570E-03
            2213            2431     263.105E-03     274.570E-03
            2216            2432     738.178E-03     730.314E-03
            2210            2432     738.178E-03     730.314E-03
            2211            2432     738.178E-03     730.314E-03
            2215            2432     738.178E-03     730.314E-03
            2212            2433     604.506E-03     613.528E-03
            2211            2433     604.506E-03     613.528E-03
            2216            2433     604.506E-03     613.528E-03
            2217            2433     604.506E-03     613.528E-03
            2218            2434     433.409E-03     449.957E-03
            2217            2434     433.409E-03     449.957E-03
            2212            2434     433.409E-03     449.957E-03
            2213            2434     433.409E-03     449.957E-03
            2213            2435     219.806E-03     258.486E-03
            2218            2435     219.806E-03     258.486E-03
            2219            2435     219.806E-03     258.486E-03
            2214            2435     219.806E-03     258.486E-03
            2220            2436     599.781E-03     596.763E-03
            2221            2436     599.781E-03     596.763E-03
            2216            2436     599.781E-03     596.763E-03
            2215            2436     599.781E-03     596.763E-03
            2217            2437     505.126E-03     506.057E-03
            2221            2437     505.126E-03     506.057E-03
            2216            2437     505.126E-03     506.057E-03
            2222            2437     505.126E-03     506.057E-03
            2222            2438     376.994E-03     380.110E-03
            2223            2438     376.994E-03     380.110E-03
            2218            2438     376.994E-03     380.110E-03
            2217            2438     376.994E-03     380.110E-03
            2219            2439     227.959E-03     248.439E-03
            2224            2439     227.959E-03     248.439E-03
            2223            2439     227.959E-03     248.439E-03
            2218            2439     227.959E-03     248.439E-03
            2727            2828     484.285E-03     501.811E-03
            2722            2828     484.285E-03     501.811E-03
            2721            2828     484.285E-03     501.811E-03
            2726            2828     484.285E-03     501.811E-03
            2728            2829     808.002E-03     850.686E-03
            2727            2829     808.002E-03     850.686E-03
            2723            2829     808.002E-03     850.686E-03
            2722            2829     808.002E-03     850.686E-03
            2728            2830         1.09686         1.17318
            2723            2830         1.09686         1.17318
            2729            2830         1.09686         1.17318
            2724            2830         1.09686         1.17318
            2724            2831         1.29290         1.36337
            2725            2831         1.29290         1.36337
            2730            2831         1.29290         1.36337
            2729            2831         1.29290         1.36337
            2726            2832     539.407E-03     559.868E-03
            2727            2832     539.407E-03     559.868E-03
            2732            2832     539.407E-03     559.868E-03
            2731            2832     539.407E-03     559.868E-03
            2732            2833     903.553E-03     922.117E-03
            2728            2833     903.553E-03     922.117E-03
            2733            2833     903.553E-03     922.117E-03
            2727            2833     903.553E-03     922.117E-03
            2734            2834         1.20897         1.25742
            2733            2834         1.20897         1.25742
            2728            2834         1.20897         1.25742
            2729            2834         1.20897         1.25742
            2729            2835         1.39166         1.43730
            2734            2835         1.39166         1.43730
            2730            2835         1.39166         1.43730
            2735            2835         1.39166         1.43730
            2731            2836     610.248E-03     586.908E-03
            2737            2836     610.248E-03     586.908E-03
            2732            2836     610.248E-03     586.908E-03
            2736            2836     610.248E-03     586.908E-03
            2732            2837         1.05280     963.078E-03
            2738            2837         1.05280     963.078E-03
            2737            2837         1.05280     963.078E-03
            2733            2837         1.05280     963.078E-03
            2734            2838         1.39282         1.28093
            2738            2838         1.39282         1.28093
            2739            2838         1.39282         1.28093
            2733            2838         1.39282         1.28093
            2734            2839         1.57977         1.47680
            2739            2839         1.57977         1.47680
            2740            2839         1.57977         1.47680
            2735            2839         1.57977         1.47680
            2737            2840     590.571E-03     586.153E-03
            2741            2840     590.571E-03     586.153E-03
            2736            2840     590.571E-03     586.153E-03
            2742            2840     590.571E-03     586.153E-03
            2743            2841     993.868E-03     990.493E-03
            2737            2841     993.868E-03     990.493E-03
            2738            2841     993.868E-03     990.493E-03
            2742            2841     993.868E-03     990.493E-03
            2743            2842         1.32631         1.35154
            2744            2842         1.32631         1.35154
            2738            2842         1.32631         1.35154
            2739            2842         1.32631         1.35154
            2744            2843         1.58688         1.61509
            2739            2843         1.58688         1.61509
            2740            2843         1.58688         1.61509
            2745            2843         1.58688         1.61509
            2764            2854         1.01766         1.01877
            2765            2854         1.01766         1.01877
            2769            2854         1.01766         1.01877
            2770            2854         1.01766         1.01877
            2771            2855     943.716E-03     926.315E-03
            2765            2855     943.716E-03     926.315E-03
            2770            2855     943.716E-03     926.315E-03
            2766            2855     943.716E-03     926.315E-03
            2772            2856     876.514E-03     850.530E-03
            2766            2856     876.514E-03     850.530E-03
            2767            2856     876.514E-03     850.530E-03
            2771            2856     876.514E-03     850.530E-03
            2772            2857     802.500E-03     782.277E-03
            2767            2857     802.500E-03     782.277E-03
            2768            2857     802.500E-03     782.277E-03
            2773            2857     802.500E-03     782.277E-03
            2769            2858     919.447E-03     823.021E-03
            2775            2858     919.447E-03     823.021E-03
            2770            2858     919.447E-03     823.021E-03
            2774            2858     919.447E-03     823.021E-03
            2776            2859     923.792E-03     853.272E-03
            2775            2859     923.792E-03     853.272E-03
            2771            2859     923.792E-03     853.272E-03
            2770            2859     923.792E-03     853.272E-03
            2771            2860     853.538E-03     809.120E-03
            2776            2860     853.538E-03     809.120E-03
            2772            2860     853.538E-03     809.120E-03
            2777            2860     853.538E-03     809.120E-03
            2773            2861     795.404E-03     783.725E-03
            2772            2861     795.404E-03     783.725E-03
            2778            2861     795.404E-03     783.725E-03
            2777            2861     795.404E-03     783.725E-03
            2774            2862     786.551E-03     938.011E-03
            2780            2862     786.551E-03     938.011E-03
            2775            2862     786.551E-03     938.011E-03
            2779            2862     786.551E-03     938.011E-03
            2775            2863     751.099E-03     897.939E-03
            2781            2863     751.099E-03     897.939E-03
            2780            2863     751.099E-03     897.939E-03
            2776            2863     751.099E-03     897.939E-03
            2781            2864     762.007E-03     824.620E-03
            2777            2864     762.007E-03     824.620E-03
            2782            2864     762.007E-03     824.620E-03
            2776            2864     762.007E-03     824.620E-03
            2782            2865     766.325E-03     781.488E-03
            2777            2865     766.325E-03     781.488E-03
            2783            2865     766.325E-03     781.488E-03
            2778            2865     766.325E-03     781.488E-03
            2785            2866     895.683E-03     897.355E-03
            2784            2866     895.683E-03     897.355E-03
            2779            2866     895.683E-03     897.355E-03
            2780            2866     895.683E-03     897.355E-03
            2785            2867     813.962E-03     804.103E-03
            2780            2867     813.962E-03     804.103E-03
            2781            2867     813.962E-03     804.103E-03
            2786            2867     813.962E-03     804.103E-03
            2787            2868     808.024E-03     780.286E-03
            2786            2868     808.024E-03     780.286E-03
            2781            2868     808.024E-03     780.286E-03
            2782            2868     808.024E-03     780.286E-03
            2782            2869     802.153E-03     780.519E-03
            2783            2869     802.153E-03     780.519E-03
            2787            2869     802.153E-03     780.519E-03
            2788            2869     802.153E-03     780.519E-03
            2789            2870     759.739E-03     720.737E-03
            2790            2870     759.739E-03     720.737E-03
            2785            2870     759.739E-03     720.737E-03
            2784            2870     759.739E-03     720.737E-03
            2786            2871     756.020E-03     712.846E-03
            2790            2871     756.020E-03     712.846E-03
            2791            2871     756.020E-03     712.846E-03
            2785            2871     756.020E-03     712.846E-03
            2787            2872     781.733E-03     744.884E-03
            2786            2872     781.733E-03     744.884E-03
            2792            2872     781.733E-03     744.884E-03
            2791            2872     781.733E-03     744.884E-03
            2788            2873     795.451E-03     785.477E-03
            2793            2873     795.451E-03     785.477E-03
            2787            2873     795.451E-03     785.477E-03
            2792            2873     795.451E-03     785.477E-03
            2794            2874     527.186E-03     584.081E-03
            2789            2874     527.186E-03     584.081E-03
            2790            2874     527.186E-03     584.081E-03
            2795            2874     527.186E-03     584.081E-03
            2796            2875     594.722E-03     641.491E-03
            2791            2875     594.722E-03     641.491E-03
            2795            2875     594.722E-03     641.491E-03
            2790            2875     594.722E-03     641.491E-03
            2791            2876     698.310E-03     719.782E-03
            2797            2876     698.310E-03     719.782E-03
            2796            2876     698.310E-03     719.782E-03
            2792            2876     698.310E-03     719.782E-03
            2792            2877     763.980E-03     772.591E-03
            2798            2877     763.980E-03     772.591E-03
            2793            2877     763.980E-03     772.591E-03
            2797            2877     763.980E-03     772.591E-03
            2795            2878     421.459E-03     390.662E-03
            2800            2878     421.459E-03     390.662E-03
            2799            2878     421.459E-03     390.662E-03
            2794            2878     421.459E-03     390.662E-03
            2800            2879     545.019E-03     526.815E-03
            2795            2879     545.019E-03     526.815E-03
            2801            2879     545.019E-03     526.815E-03
            2796            2879     545.019E-03     526.815E-03
            2797            2880     675.638E-03     673.019E-03
            2801            2880     675.638E-03     673.019E-03
            2802            2880     675.638E-03     673.019E-03
            2796            2880     675.638E-03     673.019E-03
            2803            2881     759.261E-03     756.782E-03
            2802            2881     759.261E-03     756.782E-03
            2797            2881     759.261E-03     756.782E-03
            2798            2881     759.261E-03     756.782E-03
            2800            2882     284.267E-03     291.599E-03
            2804            2882     284.267E-03     291.599E-03
            2805            2882     284.267E-03     291.599E-03
            2799            2882     284.267E-03     291.599E-03
            2801            2883     483.313E-03     496.117E-03
            2805            2883     483.313E-03     496.117E-03
            2806            2883     483.313E-03     496.117E-03
            2800            2883     483.313E-03     496.117E-03
            2807            2884     643.399E-03     654.802E-03
            2801            2884     643.399E-03     654.802E-03
            2806            2884     643.399E-03     654.802E-03
            2802            2884     643.399E-03     654.802E-03
            2808            2885     752.339E-03     749.350E-03
            2802            2885     752.339E-03     749.350E-03
            2803            2885     752.339E-03     749.350E-03
            2807            2885     752.339E-03     749.350E-03
            2810            2886     245.496E-03     276.163E-03
            2804            2886     245.496E-03     276.163E-03
            2809            2886     245.496E-03     276.163E-03
            2805            2886     245.496E-03     276.163E-03
            2811            2887     458.806E-03     474.045E-03
            2806            2887     458.806E-03     474.045E-03
            2805            2887     458.806E-03     474.045E-03
            2810            2887     458.806E-03     474.045E-03
            2812            2888     622.710E-03     630.803E-03
            2806            2888     622.710E-03     630.803E-03
            2807            2888     622.710E-03     630.803E-03
            2811            2888     622.710E-03     630.803E-03
            2812            2889     747.795E-03     739.326E-03
            2813            2889     747.795E-03     739.326E-03
            2808            2889     747.795E-03     739.326E-03
            2807            2889     747.795E-03     739.326E-03
            2814            2890     250.857E-03     267.330E-03
            2815            2890     250.857E-03     267.330E-03
            2810            2890     250.857E-03     267.330E-03
            2809            2890     250.857E-03     267.330E-03
            2816            2891     398.664E-03     400.872E-03
            2810            2891     398.664E-03     400.872E-03
            2811            2891     398.664E-03     400.872E-03
            2815            2891     398.664E-03     400.872E-03
            2816            2892     520.502E-03     520.754E-03
            2817            2892     520.502E-03     520.754E-03
            2811            2892     520.502E-03     520.754E-03
            2812            2892     520.502E-03     520.754E-03
            2817            2893     607.913E-03     604.386E-03
            2813            2893     607.913E-03     604.386E-03
            2818            2893     607.913E-03     604.386E-03
            2812            2893     607.913E-03     604.386E-03
            2858            2912     353.377E-06     354.350E-06
            2853            2912     353.377E-06     354.350E-06
            2852            2912     353.377E-06     354.350E-06
            2857            2912     353.377E-06     354.350E-06
            2854            2913     307.499E-06     305.165E-06
            2853            2913     307.499E-06     305.165E-06
            2858            2913     307.499E-06     305.165E-06
            2859            2913     307.499E-06     305.165E-06
            2854            2914     322.513E-06     312.684E-06
            2860            2914     322.513E-06     312.684E-06
            2859            2914     322.513E-06     312.684E-06
            2855            2914     322.513E-06     312.684E-06
            2856            2915     339.957E-06     330.107E-06
            2860            2915     339.957E-06     330.107E-06
            2861            2915     339.957E-06     330.107E-06
            2855            2915     339.957E-06     330.107E-06
            2858            2916     277.191E-06     263.530E-06
            2863            2916     277.191E-06     263.530E-06
            2862            2916     277.191E-06     263.530E-06
            2857            2916     277.191E-06     263.530E-06
            2858            2917     276.255E-06     256.909E-06
            2864            2917     276.255E-06     256.909E-06
            2863            2917     276.255E-06     256.909E-06
            2859            2917     276.255E-06     256.909E-06
            2859            2918     309.256E-06     293.904E-06
            2860            2918     309.256E-06     293.904E-06
            2865            2918     309.256E-06     293.904E-06
            2864            2918     309.256E-06     293.904E-06
            2865            2919     336.417E-06     330.534E-06
            2866            2919     336.417E-06     330.534E-06
            2861            2919     336.417E-06     330.534E-06
            2860            2919     336.417E-06     330.534E-06
            2863            2920     167.354E-06     182.845E-06
            2862            2920     167.354E-06     182.845E-06
            2868            2920     167.354E-06     182.845E-06
            2867            2920     167.354E-06     182.845E-06
            2863            2921     203.026E-06     216.414E-06
            2864            2921     203.026E-06     216.414E-06
            2868            2921     203.026E-06     216.414E-06
            2869            2921     203.026E-06     216.414E-06
            2865            2922     273.948E-06     282.121E-06
            2870            2922     273.948E-06     282.121E-06
            2869            2922     273.948E-06     282.121E-06
            2864            2922     273.948E-06     282.121E-06
            2871            2923     322.925E-06     324.580E-06
            2870            2923     322.925E-06     324.580E-06
            2865            2923     322.925E-06     324.580E-06
            2866            2923     322.925E-06     324.580E-06
            2868            2924     121.635E-06     107.131E-06
            2867            2924     121.635E-06     107.131E-06
            2873            2924     121.635E-06     107.131E-06
            2872            2924     121.635E-06     107.131E-06
            2873            2925     179.248E-06     173.227E-06
            2868            2925     179.248E-06     173.227E-06
            2869            2925     179.248E-06     173.227E-06
            2874            2925     179.248E-06     173.227E-06
            2875            2926     265.472E-06     264.647E-06
            2870            2926     265.472E-06     264.647E-06
            2874            2926     265.472E-06     264.647E-06
            2869            2926     265.472E-06     264.647E-06
            2870            2927     323.845E-06     319.038E-06
            2876            2927     323.845E-06     319.038E-06
            2871            2927     323.845E-06     319.038E-06
            2875            2927     323.845E-06     319.038E-06
            2877            2928     96.2244E-06     119.610E-06
            2873            2928     96.2244E-06     119.610E-06
            2878            2928     96.2244E-06     119.610E-06
            2872            2928     96.2244E-06     119.610E-06
            2873            2929     162.156E-06     170.716E-06
            2874            2929     162.156E-06     170.716E-06
            2879            2929     162.156E-06     170.716E-06
            2878            2929     162.156E-06     170.716E-06
            2879            2930     256.526E-06     257.008E-06
            2880            2930     256.526E-06     257.008E-06
            2874            2930     256.526E-06     257.008E-06
            2875            2930     256.526E-06     257.008E-06
            2876            2931     321.485E-06     315.823E-06
            2881            2931     321.485E-06     315.823E-06
            2880            2931     321.485E-06     315.823E-06
            2875            2931     321.485E-06     315.823E-06
            3192            3177     339.957E-06     330.107E-06
            3187            3177     339.957E-06     330.107E-06
            3188            3177     339.957E-06     330.107E-06
            3193            3177     339.957E-06     330.107E-06
            3193            3178     322.513E-06     312.684E-06
            3189            3178     322.513E-06     312.684E-06
            3188            3178     322.513E-06     312.684E-06
            3194            3178     322.513E-06     312.684E-06
            3194            3179     307.499E-06     305.165E-06
            3190            3179     307.499E-06     305.165E-06
            3195            3179     307.499E-06     305.165E-06
            3189            3179     307.499E-06     305.165E-06
            3195            3180     353.377E-06     354.350E-06
            3196            3180     353.377E-06     354.350E-06
            3190            3180     353.377E-06     354.350E-06
            3191            3180     353.377E-06     354.350E-06
            3198            3181     336.417E-06     330.534E-06
            3193            3181     336.417E-06     330.534E-06
            3197            3181     336.417E-06     330.534E-06
            3192            3181     336.417E-06     330.534E-06
            3194            3182     309.256E-06     293.904E-06
            3198            3182     309.256E-06     293.904E-06
            3193            3182     309.256E-06     293.904E-06
            3199            3182     309.256E-06     293.904E-06
            3199            3183     276.255E-06     256.909E-06
            3194            3183     276.255E-06     256.909E-06
            3200            3183     276.255E-06     256.909E-06
            3195            3183     276.255E-06     256.909E-06
            3200            3184     277.191E-06     263.530E-06
            3201            3184     277.191E-06     263.530E-06
            3195            3184     277.191E-06     263.530E-06
            3196            3184     277.191E-06     263.530E-06
            3203            3185     322.925E-06     324.580E-06
            3202            3185     322.925E-06     324.580E-06
            3197            3185     322.925E-06     324.580E-06
            3198            3185     322.925E-06     324.580E-06
            3199            3186     273.948E-06     282.121E-06
            3203            3186     273.948E-06     282.121E-06
            3204            3186     273.948E-06     282.121E-06
            3198            3186     273.948E-06     282.121E-06
            3204            3187     203.026E-06     216.414E-06
            3199            3187     203.026E-06     216.414E-06
            3200            3187     203.026E-06     216.414E-06
            3205            3187     203.026E-06     216.414E-06
            3205            3188     167.354E-06     182.845E-06
            3200            3188     167.354E-06     182.845E-06
            3201            3188     167.354E-06     182.845E-06
            3206            3188     167.354E-06     182.845E-06
            3203            3189     323.845E-06     319.038E-06
            3208            3189     323.845E-06     319.038E-06
            3202            3189     323.845E-06     319.038E-06
            3207            3189     323.845E-06     319.038E-06
            3203            3190     265.472E-06     264.647E-06
            3204            3190     265.472E-06     264.647E-06
            3208            3190     265.472E-06     264.647E-06
            3209            3190     265.472E-06     264.647E-06
            3205            3191     179.248E-06     173.227E-06
            3209            3191     179.248E-06     173.227E-06
            3210            3191     179.248E-06     173.227E-06
            3204            3191     179.248E-06     173.227E-06
            3210            3192     121.635E-06     107.131E-06
            3206            3192     121.635E-06     107.131E-06
            3205            3192     121.635E-06     107.131E-06
            3211            3192     121.635E-06     107.131E-06
            3213            3193     321.485E-06     315.823E-06
            3212            3193     321.485E-06     315.823E-06
            3207            3193     321.485E-06     315.823E-06
            3208            3193     321.485E-06     315.823E-06
            3214            3194     256.526E-06     257.008E-06
            3208            3194     256.526E-06     257.008E-06
            3213            3194     256.526E-06     257.008E-06
            3209            3194     256.526E-06     257.008E-06
            3214            3195     162.156E-06     170.716E-06
            3209            3195     162.156E-06     170.716E-06
            3210            3195     162.156E-06     170.716E-06
            3215            3195     162.156E-06     170.716E-06
            3215            3196     96.2244E-06     119.610E-06
            3210            3196     96.2244E-06     119.610E-06
            3211            3196     96.2244E-06     119.610E-06
            3216            3196     96.2244E-06     119.610E-06


  Minimum                            80.5978E-06     97.4709E-06
      At Element                            1643            3211
            Node                             151             597

  Maximum                                1.71335         1.78799
      At Element                            2745            2745
            Node                             389              20

           Total                     1.46968E+03     1.49063E+03


Field Output reported at element nodes for region: CRJ700-1.Region_2
   Computation algorithm: EXTRAPOLATE_COMPUTE_AVERAGE
   Averaged at nodes
   Averaging regions: ODB_REGIONS

   Element Label      Node Label         S.Mises         S.Mises
                                          @Loc 1          @Loc 2
-----------------------------------------------------------------
            2030               2     81.0938E-03     80.4891E-03
             841               2     81.0938E-03     80.4891E-03
             981               3         1.26884         1.22085
            2129               3         1.26884         1.22085
             963               5     81.0107E-03     80.4061E-03
             859               5     81.0107E-03     80.4061E-03
             978               6     309.340E-06     312.898E-06
             856               9     309.340E-06     312.898E-06
            2225              11         1.26829         1.22033
             958              11         1.26829         1.22033
             861              13     80.5662E-03     79.9689E-03
            2028              13     80.5662E-03     79.9689E-03
             843              13     80.5662E-03     79.9689E-03
             961              13     80.5662E-03     79.9689E-03
             976              14     408.271E-06     406.589E-06
             858              14     408.271E-06     406.589E-06
            2227              15     297.434E-03     299.005E-03
             960              15     297.434E-03     299.005E-03
            2127              15     297.434E-03     299.005E-03
             979              15     297.434E-03     299.005E-03
            2839              16         1.54740         1.50813
             993              16         1.54740         1.50813
             991              17     499.356E-03     499.903E-03
            2239              17     499.356E-03     499.903E-03
            2837              17     499.356E-03     499.903E-03
            2132              17     499.356E-03     499.903E-03
            2130              20         1.56583         1.51317
            2237              20         1.56583         1.51317
            2242              21         1.08483         1.04418
            2851              21         1.08483         1.04418
            2882              23         1.08805         1.04761
            2142              23         1.08805         1.04761
            2849              25     812.464E-03     812.922E-03
            2884              25     812.464E-03     812.922E-03
            2144              25     812.464E-03     812.922E-03
            2240              25     812.464E-03     812.922E-03
            2746              26     198.184E-03     196.712E-03
            2912              26     198.184E-03     196.712E-03
            2272              28     198.720E-03     197.248E-03
            2821              28     198.720E-03     197.248E-03
            2914              29     197.407E-03     195.938E-03
            2819              29     197.407E-03     195.938E-03
            2748              29     197.407E-03     195.938E-03
            2270              29     197.407E-03     195.938E-03
            2836              31     309.294E-06     312.815E-06
            2763              33     408.326E-06     406.682E-06
            2834              33     408.326E-06     406.682E-06
            2761              34     309.294E-06     312.815E-06
            2033              51     195.421E-03     195.646E-03
            2030              51     195.421E-03     195.646E-03
            2036              52     223.408E-03     228.856E-03
            2033              52     223.408E-03     228.856E-03
            2036              53     222.369E-03     228.895E-03
            2039              53     222.369E-03     228.895E-03
            2039              54     249.397E-03     250.812E-03
            2042              54     249.397E-03     250.812E-03
            2042              55     288.734E-03     287.911E-03
            2045              55     288.734E-03     287.911E-03
            2048              56     341.583E-03     340.424E-03
            2045              56     341.583E-03     340.424E-03
            2051              57     418.600E-03     410.324E-03
            2048              57     418.600E-03     410.324E-03
            2054              58     374.403E-03     355.584E-03
            2051              58     374.403E-03     355.584E-03
            2057              59     326.892E-03     325.477E-03
            2054              59     326.892E-03     325.477E-03
            2057              60     396.751E-03     407.030E-03
            2060              60     396.751E-03     407.030E-03
            2060              61     456.048E-03     456.103E-03
            2063              61     456.048E-03     456.103E-03
            2063              62     522.993E-03     523.754E-03
            2066              62     522.993E-03     523.754E-03
            2069              63     607.284E-03     591.453E-03
            2066              63     607.284E-03     591.453E-03
            2069              64     554.114E-03     511.399E-03
            2072              64     554.114E-03     511.399E-03
            2075              65     503.417E-03     491.698E-03
            2072              65     503.417E-03     491.698E-03
            2075              66     586.593E-03     598.982E-03
            2078              66     586.593E-03     598.982E-03
            2078              67     652.940E-03     650.945E-03
            2081              67     652.940E-03     650.945E-03
            2081              68     712.778E-03     708.209E-03
            2084              68     712.778E-03     708.209E-03
            2084              69     781.468E-03     780.520E-03
            2087              69     781.468E-03     780.520E-03
            2087              70     865.030E-03     839.973E-03
            2090              70     865.030E-03     839.973E-03
            2090              71     801.245E-03     734.137E-03
            2093              71     801.245E-03     734.137E-03
            2096              72     744.534E-03     723.308E-03
            2093              72     744.534E-03     723.308E-03
            2096              73     834.993E-03     848.976E-03
            2099              73     834.993E-03     848.976E-03
            2102              74     903.891E-03     900.180E-03
            2099              74     903.891E-03     900.180E-03
            2102              75     965.223E-03     958.948E-03
            2105              75     965.223E-03     958.948E-03
            2105              76         1.03538         1.03573
            2108              76         1.03538         1.03573
            2111              77         1.11793         1.08431
            2108              77         1.11793         1.08431
            2111              78         1.05141     965.064E-03
            2114              78         1.05141     965.064E-03
            2114              79         1.00170     974.500E-03
            2117              79         1.00170     974.500E-03
            2120              80         1.09881         1.11718
            2117              80         1.09881         1.11718
            2123              81         1.16571         1.16355
            2120              81         1.16571         1.16355
            2123              82         1.24039         1.24810
            2126              82         1.24039         1.24810
            2126              83         1.32370         1.28487
            2129              83         1.32370         1.28487
             966             147     444.376E-06     437.576E-06
             963             147     444.376E-06     437.576E-06
             969             148     354.209E-06     356.879E-06
             966             148     354.209E-06     356.879E-06
             972             149     299.433E-06     303.238E-06
             969             149     299.433E-06     303.238E-06
             972             150     275.277E-06     283.074E-06
             975             150     275.277E-06     283.074E-06
             975             151     289.690E-06     296.401E-06
             978             151     289.690E-06     296.401E-06
             841             176     444.376E-06     437.576E-06
             844             176     444.376E-06     437.576E-06
             847             177     354.209E-06     356.879E-06
             844             177     354.209E-06     356.879E-06
             847             178     299.433E-06     303.238E-06
             850             178     299.433E-06     303.238E-06
             853             179     275.277E-06     283.074E-06
             850             179     275.277E-06     283.074E-06
             856             180     289.690E-06     296.401E-06
             853             180     289.690E-06     296.401E-06
             859             194     195.747E-03     196.001E-03
             862             194     195.747E-03     196.001E-03
             865             195     223.784E-03     229.214E-03
             862             195     223.784E-03     229.214E-03
             865             196     221.957E-03     228.446E-03
             868             196     221.957E-03     228.446E-03
             868             197     248.487E-03     249.910E-03
             871             197     248.487E-03     249.910E-03
             871             198     287.544E-03     286.736E-03
             874             198     287.544E-03     286.736E-03
             874             199     340.170E-03     339.024E-03
             877             199     340.170E-03     339.024E-03
             877             200     416.987E-03     408.764E-03
             880             200     416.987E-03     408.764E-03
             883             201     373.060E-03     354.394E-03
             880             201     373.060E-03     354.394E-03
             886             202     325.734E-03     324.410E-03
             883             202     325.734E-03     324.410E-03
             886             203     395.339E-03     405.618E-03
             889             203     395.339E-03     405.618E-03
             892             204     454.534E-03     454.600E-03
             889             204     454.534E-03     454.600E-03
             892             205     521.383E-03     522.138E-03
             895             205     521.383E-03     522.138E-03
             895             206     605.558E-03     589.769E-03
             898             206     605.558E-03     589.769E-03
             898             207     552.479E-03     509.896E-03
             901             207     552.479E-03     509.896E-03
             901             208     501.895E-03     490.249E-03
             904             208     501.895E-03     490.249E-03
             904             209     585.009E-03     597.403E-03
             907             209     585.009E-03     597.403E-03
             910             210     651.313E-03     649.330E-03
             907             210     651.313E-03     649.330E-03
             913             211     711.125E-03     706.566E-03
             910             211     711.125E-03     706.566E-03
             913             212     779.774E-03     778.827E-03
             916             212     779.774E-03     778.827E-03
             916             213     863.255E-03     838.245E-03
             919             213     863.255E-03     838.245E-03
             919             214     799.505E-03     732.523E-03
             922             214     799.505E-03     732.523E-03
             925             215     742.882E-03     721.717E-03
             922             215     742.882E-03     721.717E-03
             928             216     833.338E-03     847.326E-03
             925             216     833.338E-03     847.326E-03
             931             217     902.219E-03     898.519E-03
             928             217     902.219E-03     898.519E-03
             934             218     963.537E-03     957.271E-03
             931             218     963.537E-03     957.271E-03
             934             219         1.03367         1.03401
             937             219         1.03367         1.03401
             937             220         1.11614         1.08257
             940             220         1.11614         1.08257
             943             221         1.04965     963.416E-03
             940             221         1.04965     963.416E-03
             946             222         1.00001     972.862E-03
             943             222         1.00001     972.862E-03
             946             223         1.09713         1.11550
             949             223         1.09713         1.11550
             949             224         1.16404         1.16188
             952             224         1.16404         1.16188
             955             225         1.23868         1.24638
             952             225         1.23868         1.24638
             958             226         1.32192         1.28312
             955             226         1.32192         1.28312
             842             264     80.9193E-03     80.3188E-03
            2030             264     80.9193E-03     80.3188E-03
             841             264     80.9193E-03     80.3188E-03
            2029             264     80.9193E-03     80.3188E-03
             843             265     80.6597E-03     80.0629E-03
            2029             265     80.6597E-03     80.0629E-03
            2028             265     80.6597E-03     80.0629E-03
             842             265     80.6597E-03     80.0629E-03
             846             266     406.267E-06     413.955E-06
             964             266     406.267E-06     413.955E-06
             961             266     406.267E-06     413.955E-06
             843             266     406.267E-06     413.955E-06
             964             267     441.023E-06     451.388E-06
             846             267     441.023E-06     451.388E-06
             967             267     441.023E-06     451.388E-06
             849             267     441.023E-06     451.388E-06
             967             268     455.827E-06     461.004E-06
             852             268     455.827E-06     461.004E-06
             970             268     455.827E-06     461.004E-06
             849             268     455.827E-06     461.004E-06
             855             269     441.986E-06     441.785E-06
             973             269     441.986E-06     441.785E-06
             970             269     441.986E-06     441.785E-06
             852             269     441.986E-06     441.785E-06
             858             270     418.699E-06     417.148E-06
             855             270     418.699E-06     417.148E-06
             976             270     418.699E-06     417.148E-06
             973             270     418.699E-06     417.148E-06
             858             271     398.155E-06     397.349E-06
             857             271     398.155E-06     397.349E-06
             856             272     348.690E-06     350.504E-06
             857             272     348.690E-06     350.504E-06
             860             273     80.8527E-03     80.2523E-03
             962             273     80.8527E-03     80.2523E-03
             963             273     80.8527E-03     80.2523E-03
             859             273     80.8527E-03     80.2523E-03
             962             274     80.6263E-03     80.0295E-03
             861             274     80.6263E-03     80.0295E-03
             860             274     80.6263E-03     80.0295E-03
             961             274     80.6263E-03     80.0295E-03
             864             275     240.562E-03     237.919E-03
            2028             275     240.562E-03     237.919E-03
             861             275     240.562E-03     237.919E-03
            2031             275     240.562E-03     237.919E-03
             864             276     329.616E-03     323.600E-03
            2031             276     329.616E-03     323.600E-03
             867             276     329.616E-03     323.600E-03
            2034             276     329.616E-03     323.600E-03
            2034             277     347.432E-03     340.299E-03
            2037             277     347.432E-03     340.299E-03
             867             277     347.432E-03     340.299E-03
             870             277     347.432E-03     340.299E-03
            2040             278     359.688E-03     356.007E-03
             873             278     359.688E-03     356.007E-03
            2037             278     359.688E-03     356.007E-03
             870             278     359.688E-03     356.007E-03
             876             279     362.407E-03     365.416E-03
             873             279     362.407E-03     365.416E-03
            2043             279     362.407E-03     365.416E-03
            2040             279     362.407E-03     365.416E-03
             876             280     348.275E-03     356.419E-03
             879             280     348.275E-03     356.419E-03
            2043             280     348.275E-03     356.419E-03
            2046             280     348.275E-03     356.419E-03
            2049             281     316.754E-03     322.992E-03
             882             281     316.754E-03     322.992E-03
            2046             281     316.754E-03     322.992E-03
             879             281     316.754E-03     322.992E-03
             882             282     325.074E-03     321.694E-03
            2052             282     325.074E-03     321.694E-03
            2049             282     325.074E-03     321.694E-03
             885             282     325.074E-03     321.694E-03
             888             283     351.187E-03     337.227E-03
             885             283     351.187E-03     337.227E-03
            2052             283     351.187E-03     337.227E-03
            2055             283     351.187E-03     337.227E-03
            2055             284     358.897E-03     344.992E-03
             891             284     358.897E-03     344.992E-03
            2058             284     358.897E-03     344.992E-03
             888             284     358.897E-03     344.992E-03
             891             285     369.947E-03     371.657E-03
            2058             285     369.947E-03     371.657E-03
             894             285     369.947E-03     371.657E-03
            2061             285     369.947E-03     371.657E-03
             897             286     356.145E-03     372.133E-03
            2061             286     356.145E-03     372.133E-03
            2064             286     356.145E-03     372.133E-03
             894             286     356.145E-03     372.133E-03
            2064             287     316.153E-03     328.556E-03
            2067             287     316.153E-03     328.556E-03
             900             287     316.153E-03     328.556E-03
             897             287     316.153E-03     328.556E-03
             903             288     333.247E-03     327.256E-03
            2067             288     333.247E-03     327.256E-03
             900             288     333.247E-03     327.256E-03
            2070             288     333.247E-03     327.256E-03
             903             289     369.603E-03     344.469E-03
             906             289     369.603E-03     344.469E-03
            2070             289     369.603E-03     344.469E-03
            2073             289     369.603E-03     344.469E-03
             909             290     369.556E-03     343.418E-03
            2076             290     369.556E-03     343.418E-03
             906             290     369.556E-03     343.418E-03
            2073             290     369.556E-03     343.418E-03
            2079             291     379.887E-03     370.470E-03
            2076             291     379.887E-03     370.470E-03
             909             291     379.887E-03     370.470E-03
             912             291     379.887E-03     370.470E-03
             915             292     389.837E-03     404.577E-03
            2082             292     389.837E-03     404.577E-03
            2079             292     389.837E-03     404.577E-03
             912             292     389.837E-03     404.577E-03
            2082             293     372.607E-03     402.281E-03
             918             293     372.607E-03     402.281E-03
            2085             293     372.607E-03     402.281E-03
             915             293     372.607E-03     402.281E-03
             918             294     322.880E-03     342.305E-03
            2085             294     322.880E-03     342.305E-03
            2088             294     322.880E-03     342.305E-03
             921             294     322.880E-03     342.305E-03
            2088             295     351.835E-03     342.468E-03
            2091             295     351.835E-03     342.468E-03
             921             295     351.835E-03     342.468E-03
             924             295     351.835E-03     342.468E-03
             924             296     398.768E-03     363.756E-03
            2094             296     398.768E-03     363.756E-03
            2091             296     398.768E-03     363.756E-03
             927             296     398.768E-03     363.756E-03
             927             297     390.824E-03     357.025E-03
            2097             297     390.824E-03     357.025E-03
             930             297     390.824E-03     357.025E-03
            2094             297     390.824E-03     357.025E-03
             933             298     400.562E-03     390.284E-03
            2100             298     400.562E-03     390.284E-03
            2097             298     400.562E-03     390.284E-03
             930             298     400.562E-03     390.284E-03
             933             299     413.744E-03     435.103E-03
            2103             299     413.744E-03     435.103E-03
            2100             299     413.744E-03     435.103E-03
             936             299     413.744E-03     435.103E-03
             939             300     394.830E-03     434.853E-03
            2103             300     394.830E-03     434.853E-03
            2106             300     394.830E-03     434.853E-03
             936             300     394.830E-03     434.853E-03
            2106             301     337.290E-03     360.968E-03
             942             301     337.290E-03     360.968E-03
            2109             301     337.290E-03     360.968E-03
             939             301     337.290E-03     360.968E-03
            2112             302     381.310E-03     368.879E-03
             945             302     381.310E-03     368.879E-03
             942             302     381.310E-03     368.879E-03
            2109             302     381.310E-03     368.879E-03
            2112             303     435.744E-03     396.546E-03
             945             303     435.744E-03     396.546E-03
            2115             303     435.744E-03     396.546E-03
             948             303     435.744E-03     396.546E-03
             951             304     421.510E-03     392.086E-03
            2115             304     421.510E-03     392.086E-03
            2118             304     421.510E-03     392.086E-03
             948             304     421.510E-03     392.086E-03
            2121             305     435.916E-03     451.057E-03
             954             305     435.916E-03     451.057E-03
             951             305     435.916E-03     451.057E-03
            2118             305     435.916E-03     451.057E-03
            2124             306     414.645E-03     457.367E-03
             954             306     414.645E-03     457.367E-03
             957             306     414.645E-03     457.367E-03
            2121             306     414.645E-03     457.367E-03
            2124             307     352.324E-03     375.762E-03
             957             307     352.324E-03     375.762E-03
            2127             307     352.324E-03     375.762E-03
             960             307     352.324E-03     375.762E-03
             959             308     510.927E-03     498.692E-03
            2226             308     510.927E-03     498.692E-03
             960             308     510.927E-03     498.692E-03
            2227             308     510.927E-03     498.692E-03
            2226             309     996.428E-03     959.415E-03
             958             309     996.428E-03     959.415E-03
             959             309     996.428E-03     959.415E-03
            2225             309     996.428E-03     959.415E-03
             978             310     348.690E-06     350.504E-06
             977             310     348.690E-06     350.504E-06
             976             311     398.155E-06     397.349E-06
             977             311     398.155E-06     397.349E-06
            2128             312     511.298E-03     499.017E-03
            2127             312     511.298E-03     499.017E-03
             979             312     511.298E-03     499.017E-03
             980             312     511.298E-03     499.017E-03
             980             313     996.925E-03     959.879E-03
             981             313     996.925E-03     959.879E-03
            2129             313     996.925E-03     959.879E-03
            2128             313     996.925E-03     959.879E-03
             981             314         1.18128         1.13998
             984             314         1.18128         1.13998
             984             315         1.26397         1.24390
             987             315         1.26397         1.24390
             990             316         1.38990         1.42629
             987             316         1.38990         1.42629
             990             317         1.47227         1.44720
             993             317         1.47227         1.44720
            2838             318         1.22832         1.20018
            2839             318         1.22832         1.20018
             993             318         1.22832         1.20018
             992             318         1.22832         1.20018
            2837             319     701.367E-03     695.418E-03
             992             319     701.367E-03     695.418E-03
            2838             319     701.367E-03     695.418E-03
             991             319     701.367E-03     695.418E-03
             991             320     368.748E-03     382.526E-03
             988             320     368.748E-03     382.526E-03
            2236             320     368.748E-03     382.526E-03
            2239             320     368.748E-03     382.526E-03
            2233             321     437.641E-03     452.401E-03
             985             321     437.641E-03     452.401E-03
            2236             321     437.641E-03     452.401E-03
             988             321     437.641E-03     452.401E-03
             985             322     487.574E-03     477.209E-03
            2233             322     487.574E-03     477.209E-03
             982             322     487.574E-03     477.209E-03
            2230             322     487.574E-03     477.209E-03
             982             323     392.746E-03     380.516E-03
            2230             323     392.746E-03     380.516E-03
             979             323     392.746E-03     380.516E-03
            2227             323     392.746E-03     380.516E-03
            2237             389         1.48880         1.45790
            2234             389         1.48880         1.45790
            2234             390         1.40370         1.43894
            2231             390         1.40370         1.43894
            2228             391         1.27407         1.25940
            2231             391         1.27407         1.25940
            2225             392         1.18307         1.15159
            2228             392         1.18307         1.15159
            2842             393         1.40240         1.40044
            2839             393         1.40240         1.40044
            2845             394         1.34687         1.32067
            2842             394         1.34687         1.32067
            2848             395         1.36923         1.37433
            2845             395         1.36923         1.37433
            2851             396         1.10236         1.10510
            2848             396         1.10236         1.10510
            2133             420         1.41181         1.40965
            2130             420         1.41181         1.40965
            2136             421         1.35394         1.32882
            2133             421         1.35394         1.32882
            2136             422         1.37727         1.37871
            2139             422         1.37727         1.37871
            2142             423         1.10682         1.11177
            2139             423         1.10682         1.11177
            2130             432         1.24523         1.20501
            2237             432         1.24523         1.20501
            2238             432         1.24523         1.20501
            2131             432         1.24523         1.20501
            2131             433     714.922E-03     699.034E-03
            2132             433     714.922E-03     699.034E-03
            2239             433     714.922E-03     699.034E-03
            2238             433     714.922E-03     699.034E-03
            2837             434     788.249E-03     788.532E-03
            2840             434     788.249E-03     788.532E-03
            2135             434     788.249E-03     788.532E-03
            2132             434     788.249E-03     788.532E-03
            2843             435     804.801E-03     803.077E-03
            2840             435     804.801E-03     803.077E-03
            2135             435     804.801E-03     803.077E-03
            2138             435     804.801E-03     803.077E-03
            2843             436     753.429E-03     750.830E-03
            2846             436     753.429E-03     750.830E-03
            2141             436     753.429E-03     750.830E-03
            2138             436     753.429E-03     750.830E-03
            2141             437     861.674E-03     864.335E-03
            2846             437     861.674E-03     864.335E-03
            2849             437     861.674E-03     864.335E-03
            2144             437     861.674E-03     864.335E-03
            2143             438     870.192E-03     864.299E-03
            2144             438     870.192E-03     864.299E-03
            2883             438     870.192E-03     864.299E-03
            2884             438     870.192E-03     864.299E-03
            2882             439         1.00776     981.422E-03
            2883             439         1.00776     981.422E-03
            2142             439         1.00776     981.422E-03
            2143             439         1.00776     981.422E-03
            2882             444         1.12676         1.12813
            2885             444         1.12676         1.12813
            2888             445     885.849E-03     890.828E-03
            2885             445     885.849E-03     890.828E-03
            2888             446     927.369E-03     894.527E-03
            2891             446     927.369E-03     894.527E-03
            2894             447         1.00818     987.467E-03
            2891             447         1.00818     987.467E-03
            2897             448     822.717E-03     819.846E-03
            2894             448     822.717E-03     819.846E-03
            2897             449     696.333E-03     694.210E-03
            2900             449     696.333E-03     694.210E-03
            2900             450     603.323E-03     606.784E-03
            2903             450     603.323E-03     606.784E-03
            2906             451     541.957E-03     557.231E-03
            2903             451     541.957E-03     557.231E-03
            2906             452     548.912E-03     561.570E-03
            2909             452     548.912E-03     561.570E-03
            2909             453     480.231E-03     480.845E-03
            2912             453     480.231E-03     480.845E-03
            2240             468     868.787E-03     862.771E-03
            2849             468     868.787E-03     862.771E-03
            2850             468     868.787E-03     862.771E-03
            2241             468     868.787E-03     862.771E-03
            2242             469         1.00520     978.621E-03
            2851             469         1.00520     978.621E-03
            2241             469         1.00520     978.621E-03
            2850             469         1.00520     978.621E-03
            2242             470         1.12355         1.12834
            2245             470         1.12355         1.12834
            2245             471     885.489E-03     888.576E-03
            2248             471     885.489E-03     888.576E-03
            2251             472     929.751E-03     896.006E-03
            2248             472     929.751E-03     896.006E-03
            2254             473         1.01235     993.004E-03
            2251             473         1.01235     993.004E-03
            2254             474     827.062E-03     824.543E-03
            2257             474     827.062E-03     824.543E-03
            2257             475     699.929E-03     698.910E-03
            2260             475     699.929E-03     698.910E-03
            2260             476     606.451E-03     610.638E-03
            2263             476     606.451E-03     610.638E-03
            2266             477     543.333E-03     559.668E-03
            2263             477     543.333E-03     559.668E-03
            2266             478     547.718E-03     560.736E-03
            2269             478     547.718E-03     560.736E-03
            2269             479     479.544E-03     479.808E-03
            2272             479     479.544E-03     479.808E-03
            2820             480     198.314E-03     196.845E-03
            2271             480     198.314E-03     196.845E-03
            2821             480     198.314E-03     196.845E-03
            2272             480     198.314E-03     196.845E-03
            2271             481     197.685E-03     196.217E-03
            2820             481     197.685E-03     196.217E-03
            2819             481     197.685E-03     196.217E-03
            2270             481     197.685E-03     196.217E-03
            2270             482     589.849E-03     583.582E-03
            2914             482     589.849E-03     583.582E-03
            2267             482     589.849E-03     583.582E-03
            2911             482     589.849E-03     583.582E-03
            2267             483     807.233E-03     793.087E-03
            2264             483     807.233E-03     793.087E-03
            2908             483     807.233E-03     793.087E-03
            2911             483     807.233E-03     793.087E-03
            2908             484     850.259E-03     833.292E-03
            2261             484     850.259E-03     833.292E-03
            2264             484     850.259E-03     833.292E-03
            2905             484     850.259E-03     833.292E-03
            2905             485     880.747E-03     871.872E-03
            2261             485     880.747E-03     871.872E-03
            2902             485     880.747E-03     871.872E-03
            2258             485     880.747E-03     871.872E-03
            2902             486     886.823E-03     894.055E-03
            2258             486     886.823E-03     894.055E-03
            2255             486     886.823E-03     894.055E-03
            2899             486     886.823E-03     894.055E-03
            2899             487     851.021E-03     870.408E-03
            2252             487     851.021E-03     870.408E-03
            2255             487     851.021E-03     870.408E-03
            2896             487     851.021E-03     870.408E-03
            2893             488     774.987E-03     789.667E-03
            2896             488     774.987E-03     789.667E-03
            2249             488     774.987E-03     789.667E-03
            2252             488     774.987E-03     789.667E-03
            2890             489     804.819E-03     812.265E-03
            2893             489     804.819E-03     812.265E-03
            2249             489     804.819E-03     812.265E-03
            2246             489     804.819E-03     812.265E-03
            2243             490     828.794E-03     831.690E-03
            2246             490     828.794E-03     831.690E-03
            2887             490     828.794E-03     831.690E-03
            2890             490     828.794E-03     831.690E-03
            2887             491     742.352E-03     738.889E-03
            2240             491     742.352E-03     738.889E-03
            2243             491     742.352E-03     738.889E-03
            2884             491     742.352E-03     738.889E-03
            2824             562     443.121E-06     436.344E-06
            2821             562     443.121E-06     436.344E-06
            2824             563     353.456E-06     356.137E-06
            2827             563     353.456E-06     356.137E-06
            2827             564     299.014E-06     302.854E-06
            2830             564     299.014E-06     302.854E-06
            2833             565     275.252E-06     283.016E-06
            2830             565     275.252E-06     283.016E-06
            2836             566     289.769E-06     296.418E-06
            2833             566     289.769E-06     296.418E-06
            2913             587     197.885E-03     196.416E-03
            2912             587     197.885E-03     196.416E-03
            2747             587     197.885E-03     196.416E-03
            2746             587     197.885E-03     196.416E-03
            2914             588     197.470E-03     196.002E-03
            2748             588     197.470E-03     196.002E-03
            2913             588     197.470E-03     196.002E-03
            2747             588     197.470E-03     196.002E-03
            2748             589     406.157E-06     413.765E-06
            2822             589     406.157E-06     413.765E-06
            2751             589     406.157E-06     413.765E-06
            2819             589     406.157E-06     413.765E-06
            2751             590     440.722E-06     451.024E-06
            2754             590     440.722E-06     451.024E-06
            2825             590     440.722E-06     451.024E-06
            2822             590     440.722E-06     451.024E-06
            2825             591     455.565E-06     460.773E-06
            2828             591     455.565E-06     460.773E-06
            2754             591     455.565E-06     460.773E-06
            2757             591     455.565E-06     460.773E-06
            2828             592     441.800E-06     441.669E-06
            2760             592     441.800E-06     441.669E-06
            2831             592     441.800E-06     441.669E-06
            2757             592     441.800E-06     441.669E-06
            2831             593     418.646E-06     417.144E-06
            2760             593     418.646E-06     417.144E-06
            2834             593     418.646E-06     417.144E-06
            2763             593     418.646E-06     417.144E-06
            2762             594     398.202E-06     397.429E-06
            2763             594     398.202E-06     397.429E-06
            2762             595     348.686E-06     350.496E-06
            2761             595     348.686E-06     350.496E-06
            2758             596     289.769E-06     296.418E-06
            2761             596     289.769E-06     296.418E-06
            2758             597     275.252E-06     283.016E-06
            2755             597     275.252E-06     283.016E-06
            2752             598     299.014E-06     302.854E-06
            2755             598     299.014E-06     302.854E-06
            2752             599     353.456E-06     356.137E-06
            2749             599     353.456E-06     356.137E-06
            2746             600     443.121E-06     436.344E-06
            2749             600     443.121E-06     436.344E-06
            2836             605     348.686E-06     350.496E-06
            2835             605     348.686E-06     350.496E-06
            2834             606     398.202E-06     397.429E-06
            2835             606     398.202E-06     397.429E-06
             844            1357     433.689E-06     433.719E-06
             841            1357     433.689E-06     433.719E-06
             842            1357     433.689E-06     433.719E-06
             845            1357     433.689E-06     433.719E-06
             846            1358     414.635E-06     421.909E-06
             843            1358     414.635E-06     421.909E-06
             842            1358     414.635E-06     421.909E-06
             845            1358     414.635E-06     421.909E-06
             844            1359     388.548E-06     392.960E-06
             847            1359     388.548E-06     392.960E-06
             848            1359     388.548E-06     392.960E-06
             845            1359     388.548E-06     392.960E-06
             845            1360     431.955E-06     440.214E-06
             849            1360     431.955E-06     440.214E-06
             848            1360     431.955E-06     440.214E-06
             846            1360     431.955E-06     440.214E-06
             850            1361     350.743E-06     354.330E-06
             848            1361     350.743E-06     354.330E-06
             851            1361     350.743E-06     354.330E-06
             847            1361     350.743E-06     354.330E-06
             849            1362     428.940E-06     433.213E-06
             848            1362     428.940E-06     433.213E-06
             852            1362     428.940E-06     433.213E-06
             851            1362     428.940E-06     433.213E-06
             853            1363     339.523E-06     344.397E-06
             854            1363     339.523E-06     344.397E-06
             851            1363     339.523E-06     344.397E-06
             850            1363     339.523E-06     344.397E-06
             854            1364     422.877E-06     423.752E-06
             852            1364     422.877E-06     423.752E-06
             851            1364     422.877E-06     423.752E-06
             855            1364     422.877E-06     423.752E-06
             857            1365     344.431E-06     347.717E-06
             853            1365     344.431E-06     347.717E-06
             854            1365     344.431E-06     347.717E-06
             856            1365     344.431E-06     347.717E-06
             858            1366     408.935E-06     408.090E-06
             854            1366     408.935E-06     408.090E-06
             857            1366     408.935E-06     408.090E-06
             855            1366     408.935E-06     408.090E-06
             859            1367     215.184E-03     213.801E-03
             860            1367     215.184E-03     213.801E-03
             862            1367     215.184E-03     213.801E-03
             863            1367     215.184E-03     213.801E-03
             863            1368     237.589E-03     234.759E-03
             861            1368     237.589E-03     234.759E-03
             864            1368     237.589E-03     234.759E-03
             860            1368     237.589E-03     234.759E-03
             866            1369     269.103E-03     268.902E-03
             865            1369     269.103E-03     268.902E-03
             863            1369     269.103E-03     268.902E-03
             862            1369     269.103E-03     268.902E-03
             863            1370     322.013E-03     316.094E-03
             867            1370     322.013E-03     316.094E-03
             864            1370     322.013E-03     316.094E-03
             866            1370     322.013E-03     316.094E-03
             865            1371     270.798E-03     272.496E-03
             868            1371     270.798E-03     272.496E-03
             869            1371     270.798E-03     272.496E-03
             866            1371     270.798E-03     272.496E-03
             867            1372     333.520E-03     328.408E-03
             870            1372     333.520E-03     328.408E-03
             866            1372     333.520E-03     328.408E-03
             869            1372     333.520E-03     328.408E-03
             871            1373     283.786E-03     285.247E-03
             872            1373     283.786E-03     285.247E-03
             868            1373     283.786E-03     285.247E-03
             869            1373     283.786E-03     285.247E-03
             872            1374     339.357E-03     338.263E-03
             870            1374     339.357E-03     338.263E-03
             869            1374     339.357E-03     338.263E-03
             873            1374     339.357E-03     338.263E-03
             874            1375     308.568E-03     308.585E-03
             871            1375     308.568E-03     308.585E-03
             875            1375     308.568E-03     308.585E-03
             872            1375     308.568E-03     308.585E-03
             873            1376     345.943E-03     347.864E-03
             876            1376     345.943E-03     347.864E-03
             875            1376     345.943E-03     347.864E-03
             872            1376     345.943E-03     347.864E-03
             877            1377     346.689E-03     347.557E-03
             878            1377     346.689E-03     347.557E-03
             874            1377     346.689E-03     347.557E-03
             875            1377     346.689E-03     347.557E-03
             875            1378     350.674E-03     356.184E-03
             876            1378     350.674E-03     356.184E-03
             878            1378     350.674E-03     356.184E-03
             879            1378     350.674E-03     356.184E-03
             878            1379     384.387E-03     382.121E-03
             881            1379     384.387E-03     382.121E-03
             880            1379     384.387E-03     382.121E-03
             877            1379     384.387E-03     382.121E-03
             881            1380     334.196E-03     339.164E-03
             878            1380     334.196E-03     339.164E-03
             879            1380     334.196E-03     339.164E-03
             882            1380     334.196E-03     339.164E-03
             884            1381     360.039E-03     345.387E-03
             881            1381     360.039E-03     345.387E-03
             883            1381     360.039E-03     345.387E-03
             880            1381     360.039E-03     345.387E-03
             881            1382     335.978E-03     328.977E-03
             882            1382     335.978E-03     328.977E-03
             885            1382     335.978E-03     328.977E-03
             884            1382     335.978E-03     328.977E-03
             887            1383     346.488E-03     338.209E-03
             883            1383     346.488E-03     338.209E-03
             886            1383     346.488E-03     338.209E-03
             884            1383     346.488E-03     338.209E-03
             885            1384     359.151E-03     344.559E-03
             887            1384     359.151E-03     344.559E-03
             888            1384     359.151E-03     344.559E-03
             884            1384     359.151E-03     344.559E-03
             887            1385     387.680E-03     393.498E-03
             889            1385     387.680E-03     393.498E-03
             890            1385     387.680E-03     393.498E-03
             886            1385     387.680E-03     393.498E-03
             890            1386     369.378E-03     363.100E-03
             887            1386     369.378E-03     363.100E-03
             891            1386     369.378E-03     363.100E-03
             888            1386     369.378E-03     363.100E-03
             889            1387     424.417E-03     428.396E-03
             892            1387     424.417E-03     428.396E-03
             890            1387     424.417E-03     428.396E-03
             893            1387     424.417E-03     428.396E-03
             890            1388     382.020E-03     386.808E-03
             894            1388     382.020E-03     386.808E-03
             893            1388     382.020E-03     386.808E-03
             891            1388     382.020E-03     386.808E-03
             895            1389     473.037E-03     478.825E-03
             896            1389     473.037E-03     478.825E-03
             893            1389     473.037E-03     478.825E-03
             892            1389     473.037E-03     478.825E-03
             897            1390     390.302E-03     403.700E-03
             893            1390     390.302E-03     403.700E-03
             896            1390     390.302E-03     403.700E-03
             894            1390     390.302E-03     403.700E-03
             899            1391     513.642E-03     508.381E-03
             896            1391     513.642E-03     508.381E-03
             898            1391     513.642E-03     508.381E-03
             895            1391     513.642E-03     508.381E-03
             900            1392     368.814E-03     377.659E-03
             896            1392     368.814E-03     377.659E-03
             897            1392     368.814E-03     377.659E-03
             899            1392     368.814E-03     377.659E-03
             898            1393     484.376E-03     450.522E-03
             901            1393     484.376E-03     450.522E-03
             899            1393     484.376E-03     450.522E-03
             902            1393     484.376E-03     450.522E-03
             902            1394     374.644E-03     359.100E-03
             899            1394     374.644E-03     359.100E-03
             903            1394     374.644E-03     359.100E-03
             900            1394     374.644E-03     359.100E-03
             904            1395     471.713E-03     452.850E-03
             901            1395     471.713E-03     452.850E-03
             905            1395     471.713E-03     452.850E-03
             902            1395     471.713E-03     452.850E-03
             903            1396     405.462E-03     379.860E-03
             906            1396     405.462E-03     379.860E-03
             902            1396     405.462E-03     379.860E-03
             905            1396     405.462E-03     379.860E-03
             907            1397     523.410E-03     531.316E-03
             904            1397     523.410E-03     531.316E-03
             908            1397     523.410E-03     531.316E-03
             905            1397     523.410E-03     531.316E-03
             906            1398     415.556E-03     404.182E-03
             905            1398     415.556E-03     404.182E-03
             909            1398     415.556E-03     404.182E-03
             908            1398     415.556E-03     404.182E-03
             908            1399     567.811E-03     572.387E-03
             910            1399     567.811E-03     572.387E-03
             911            1399     567.811E-03     572.387E-03
             907            1399     567.811E-03     572.387E-03
             912            1400     431.953E-03     432.793E-03
             911            1400     431.953E-03     432.793E-03
             909            1400     431.953E-03     432.793E-03
             908            1400     431.953E-03     432.793E-03
             914            1401     611.358E-03     613.474E-03
             910            1401     611.358E-03     613.474E-03
             911            1401     611.358E-03     613.474E-03
             913            1401     611.358E-03     613.474E-03
             914            1402     450.547E-03     462.303E-03
             915            1402     450.547E-03     462.303E-03
             912            1402     450.547E-03     462.303E-03
             911            1402     450.547E-03     462.303E-03
             916            1403     664.995E-03     673.155E-03
             917            1403     664.995E-03     673.155E-03
             913            1403     664.995E-03     673.155E-03
             914            1403     664.995E-03     673.155E-03
             917            1404     461.237E-03     484.711E-03
             918            1404     461.237E-03     484.711E-03
             915            1404     461.237E-03     484.711E-03
             914            1404     461.237E-03     484.711E-03
             916            1405     702.398E-03     690.419E-03
             919            1405     702.398E-03     690.419E-03
             917            1405     702.398E-03     690.419E-03
             920            1405     702.398E-03     690.419E-03
             917            1406     432.023E-03     442.284E-03
             918            1406     432.023E-03     442.284E-03
             921            1406     432.023E-03     442.284E-03
             920            1406     432.023E-03     442.284E-03
             920            1407     663.219E-03     607.594E-03
             919            1407     663.219E-03     607.594E-03
             922            1407     663.219E-03     607.594E-03
             923            1407     663.219E-03     607.594E-03
             924            1408     439.216E-03     412.422E-03
             921            1408     439.216E-03     412.422E-03
             923            1408     439.216E-03     412.422E-03
             920            1408     439.216E-03     412.422E-03
             922            1409     650.665E-03     622.611E-03
             926            1409     650.665E-03     622.611E-03
             923            1409     650.665E-03     622.611E-03
             925            1409     650.665E-03     622.611E-03
             923            1410     478.461E-03     443.485E-03
             924            1410     478.461E-03     443.485E-03
             927            1410     478.461E-03     443.485E-03
             926            1410     478.461E-03     443.485E-03
             926            1411     709.999E-03     721.931E-03
             929            1411     709.999E-03     721.931E-03
             925            1411     709.999E-03     721.931E-03
             928            1411     709.999E-03     721.931E-03
             927            1412     488.564E-03     476.579E-03
             926            1412     488.564E-03     476.579E-03
             929            1412     488.564E-03     476.579E-03
             930            1412     488.564E-03     476.579E-03
             932            1413     757.878E-03     764.416E-03
             929            1413     757.878E-03     764.416E-03
             928            1413     757.878E-03     764.416E-03
             931            1413     757.878E-03     764.416E-03
             929            1414     506.852E-03     510.075E-03
             932            1414     506.852E-03     510.075E-03
             933            1414     506.852E-03     510.075E-03
             930            1414     506.852E-03     510.075E-03
             932            1415     803.767E-03     807.621E-03
             934            1415     803.767E-03     807.621E-03
             935            1415     803.767E-03     807.621E-03
             931            1415     803.767E-03     807.621E-03
             932            1416     528.656E-03     546.312E-03
             933            1416     528.656E-03     546.312E-03
             935            1416     528.656E-03     546.312E-03
             936            1416     528.656E-03     546.312E-03
             937            1417     859.649E-03     872.152E-03
             938            1417     859.649E-03     872.152E-03
             934            1417     859.649E-03     872.152E-03
             935            1417     859.649E-03     872.152E-03
             935            1418     540.007E-03     572.360E-03
             938            1418     540.007E-03     572.360E-03
             936            1418     540.007E-03     572.360E-03
             939            1418     540.007E-03     572.360E-03
             940            1419     893.516E-03     874.837E-03
             938            1419     893.516E-03     874.837E-03
             941            1419     893.516E-03     874.837E-03
             937            1419     893.516E-03     874.837E-03
             939            1420     503.849E-03     513.828E-03
             938            1420     503.849E-03     513.828E-03
             942            1420     503.849E-03     513.828E-03
             941            1420     503.849E-03     513.828E-03
             943            1421     849.468E-03     775.957E-03
             941            1421     849.468E-03     775.957E-03
             940            1421     849.468E-03     775.957E-03
             944            1421     849.468E-03     775.957E-03
             945            1422     515.091E-03     478.505E-03
             942            1422     515.091E-03     478.505E-03
             941            1422     515.091E-03     478.505E-03
             944            1422     515.091E-03     478.505E-03
             947            1423     847.574E-03     815.321E-03
             944            1423     847.574E-03     815.321E-03
             943            1423     847.574E-03     815.321E-03
             946            1423     847.574E-03     815.321E-03
             945            1424     565.260E-03     526.979E-03
             948            1424     565.260E-03     526.979E-03
             947            1424     565.260E-03     526.979E-03
             944            1424     565.260E-03     526.979E-03
             946            1425     914.504E-03     935.183E-03
             949            1425     914.504E-03     935.183E-03
             947            1425     914.504E-03     935.183E-03
             950            1425     914.504E-03     935.183E-03
             948            1426     576.472E-03     573.226E-03
             951            1426     576.472E-03     573.226E-03
             947            1426     576.472E-03     573.226E-03
             950            1426     576.472E-03     573.226E-03
             952            1427     960.972E-03     976.675E-03
             950            1427     960.972E-03     976.675E-03
             949            1427     960.972E-03     976.675E-03
             953            1427     960.972E-03     976.675E-03
             950            1428     596.662E-03     620.988E-03
             954            1428     596.662E-03     620.988E-03
             953            1428     596.662E-03     620.988E-03
             951            1428     596.662E-03     620.988E-03
             955            1429         1.01899         1.04065
             953            1429         1.01899         1.04065
             952            1429         1.01899         1.04065
             956            1429         1.01899         1.04065
             954            1430     606.718E-03     645.899E-03
             956            1430     606.718E-03     645.899E-03
             953            1430     606.718E-03     645.899E-03
             957            1430     606.718E-03     645.899E-03
             959            1431         1.05022         1.02848
             958            1431         1.05022         1.02848
             956            1431         1.05022         1.02848
             955            1431         1.05022         1.02848
             960            1432     565.153E-03     574.555E-03
             957            1432     565.153E-03     574.555E-03
             959            1432     565.153E-03     574.555E-03
             956            1432     565.153E-03     574.555E-03
             962            1433     414.635E-06     421.909E-06
             961            1433     414.635E-06     421.909E-06
             964            1433     414.635E-06     421.909E-06
             965            1433     414.635E-06     421.909E-06
             966            1434     433.689E-06     433.719E-06
             963            1434     433.689E-06     433.719E-06
             962            1434     433.689E-06     433.719E-06
             965            1434     433.689E-06     433.719E-06
             965            1435     431.955E-06     440.214E-06
             964            1435     431.955E-06     440.214E-06
             967            1435     431.955E-06     440.214E-06
             968            1435     431.955E-06     440.214E-06
             969            1436     388.548E-06     392.960E-06
             966            1436     388.548E-06     392.960E-06
             965            1436     388.548E-06     392.960E-06
             968            1436     388.548E-06     392.960E-06
             968            1437     428.940E-06     433.213E-06
             967            1437     428.940E-06     433.213E-06
             971            1437     428.940E-06     433.213E-06
             970            1437     428.940E-06     433.213E-06
             969            1438     350.743E-06     354.330E-06
             972            1438     350.743E-06     354.330E-06
             968            1438     350.743E-06     354.330E-06
             971            1438     350.743E-06     354.330E-06
             971            1439     422.877E-06     423.752E-06
             970            1439     422.877E-06     423.752E-06
             973            1439     422.877E-06     423.752E-06
             974            1439     422.877E-06     423.752E-06
             972            1440     339.523E-06     344.397E-06
             975            1440     339.523E-06     344.397E-06
             971            1440     339.523E-06     344.397E-06
             974            1440     339.523E-06     344.397E-06
             974            1441     408.935E-06     408.090E-06
             977            1441     408.935E-06     408.090E-06
             976            1441     408.935E-06     408.090E-06
             973            1441     408.935E-06     408.090E-06
             975            1442     344.431E-06     347.717E-06
             978            1442     344.431E-06     347.717E-06
             977            1442     344.431E-06     347.717E-06
             974            1442     344.431E-06     347.717E-06
             979            1443     575.969E-03     550.331E-03
             980            1443     575.969E-03     550.331E-03
             982            1443     575.969E-03     550.331E-03
             983            1443     575.969E-03     550.331E-03
             983            1444     970.621E-03     931.170E-03
             980            1444     970.621E-03     931.170E-03
             984            1444     970.621E-03     931.170E-03
             981            1444     970.621E-03     931.170E-03
             983            1445     663.322E-03     649.084E-03
             986            1445     663.322E-03     649.084E-03
             982            1445     663.322E-03     649.084E-03
             985            1445     663.322E-03     649.084E-03
             984            1446         1.05255         1.03483
             987            1446         1.05255         1.03483
             983            1446         1.05255         1.03483
             986            1446         1.05255         1.03483
             985            1447     666.398E-03     705.058E-03
             986            1447     666.398E-03     705.058E-03
             988            1447     666.398E-03     705.058E-03
             989            1447     666.398E-03     705.058E-03
             990            1448         1.14450         1.19429
             986            1448         1.14450         1.19429
             987            1448         1.14450         1.19429
             989            1448         1.14450         1.19429
             988            1449     613.092E-03     633.055E-03
             992            1449     613.092E-03     633.055E-03
             991            1449     613.092E-03     633.055E-03
             989            1449     613.092E-03     633.055E-03
             992            1450         1.16828         1.16670
             990            1450         1.16828         1.16670
             993            1450         1.16828         1.16670
             989            1450         1.16828         1.16670
            2032            2310     237.580E-03     234.723E-03
            2029            2310     237.580E-03     234.723E-03
            2028            2310     237.580E-03     234.723E-03
            2031            2310     237.580E-03     234.723E-03
            2030            2311     215.007E-03     213.587E-03
            2033            2311     215.007E-03     213.587E-03
            2029            2311     215.007E-03     213.587E-03
            2032            2311     215.007E-03     213.587E-03
            2031            2312     321.985E-03     316.036E-03
            2034            2312     321.985E-03     316.036E-03
            2035            2312     321.985E-03     316.036E-03
            2032            2312     321.985E-03     316.036E-03
            2032            2313     268.875E-03     268.662E-03
            2033            2313     268.875E-03     268.662E-03
            2036            2313     268.875E-03     268.662E-03
            2035            2313     268.875E-03     268.662E-03
            2038            2314     333.626E-03     328.529E-03
            2035            2314     333.626E-03     328.529E-03
            2037            2314     333.626E-03     328.529E-03
            2034            2314     333.626E-03     328.529E-03
            2038            2315     271.079E-03     272.812E-03
            2036            2315     271.079E-03     272.812E-03
            2035            2315     271.079E-03     272.812E-03
            2039            2315     271.079E-03     272.812E-03
            2041            2316     339.630E-03     338.562E-03
            2040            2316     339.630E-03     338.562E-03
            2037            2316     339.630E-03     338.562E-03
            2038            2316     339.630E-03     338.562E-03
            2039            2317     284.456E-03     285.932E-03
            2038            2317     284.456E-03     285.932E-03
            2041            2317     284.456E-03     285.932E-03
            2042            2317     284.456E-03     285.932E-03
            2043            2318     346.389E-03     348.326E-03
            2041            2318     346.389E-03     348.326E-03
            2040            2318     346.389E-03     348.326E-03
            2044            2318     346.389E-03     348.326E-03
            2041            2319     309.496E-03     309.512E-03
            2042            2319     309.496E-03     309.512E-03
            2044            2319     309.496E-03     309.512E-03
            2045            2319     309.496E-03     309.512E-03
            2047            2320     351.245E-03     356.770E-03
            2046            2320     351.245E-03     356.770E-03
            2044            2320     351.245E-03     356.770E-03
            2043            2320     351.245E-03     356.770E-03
            2048            2321     347.832E-03     348.702E-03
            2045            2321     347.832E-03     348.702E-03
            2044            2321     347.832E-03     348.702E-03
            2047            2321     347.832E-03     348.702E-03
            2047            2322     334.839E-03     339.786E-03
            2050            2322     334.839E-03     339.786E-03
            2049            2322     334.839E-03     339.786E-03
            2046            2322     334.839E-03     339.786E-03
            2048            2323     385.687E-03     383.382E-03
            2050            2323     385.687E-03     383.382E-03
            2051            2323     385.687E-03     383.382E-03
            2047            2323     385.687E-03     383.382E-03
            2050            2324     336.492E-03     329.419E-03
            2053            2324     336.492E-03     329.419E-03
            2049            2324     336.492E-03     329.419E-03
            2052            2324     336.492E-03     329.419E-03
            2050            2325     361.088E-03     346.305E-03
            2054            2325     361.088E-03     346.305E-03
            2051            2325     361.088E-03     346.305E-03
            2053            2325     361.088E-03     346.305E-03
            2052            2326     359.597E-03     344.971E-03
            2053            2326     359.597E-03     344.971E-03
            2056            2326     359.597E-03     344.971E-03
            2055            2326     359.597E-03     344.971E-03
            2054            2327     347.386E-03     339.038E-03
            2053            2327     347.386E-03     339.038E-03
            2056            2327     347.386E-03     339.038E-03
            2057            2327     347.386E-03     339.038E-03
            2058            2328     369.986E-03     363.749E-03
            2059            2328     369.986E-03     363.749E-03
            2055            2328     369.986E-03     363.749E-03
            2056            2328     369.986E-03     363.749E-03
            2057            2329     388.833E-03     394.683E-03
            2060            2329     388.833E-03     394.683E-03
            2059            2329     388.833E-03     394.683E-03
            2056            2329     388.833E-03     394.683E-03
            2061            2330     382.779E-03     387.624E-03
            2062            2330     382.779E-03     387.624E-03
            2058            2330     382.779E-03     387.624E-03
            2059            2330     382.779E-03     387.624E-03
            2063            2331     425.725E-03     429.730E-03
            2059            2331     425.725E-03     429.730E-03
            2062            2331     425.725E-03     429.730E-03
            2060            2331     425.725E-03     429.730E-03
            2062            2332     391.158E-03     404.588E-03
            2061            2332     391.158E-03     404.588E-03
            2065            2332     391.158E-03     404.588E-03
            2064            2332     391.158E-03     404.588E-03
            2062            2333     474.466E-03     480.276E-03
            2066            2333     474.466E-03     480.276E-03
            2063            2333     474.466E-03     480.276E-03
            2065            2333     474.466E-03     480.276E-03
            2065            2334     369.718E-03     378.522E-03
            2068            2334     369.718E-03     378.522E-03
            2064            2334     369.718E-03     378.522E-03
            2067            2334     369.718E-03     378.522E-03
            2069            2335     515.158E-03     509.856E-03
            2065            2335     515.158E-03     509.856E-03
            2066            2335     515.158E-03     509.856E-03
            2068            2335     515.158E-03     509.856E-03
            2068            2336     375.414E-03     359.774E-03
            2071            2336     375.414E-03     359.774E-03
            2067            2336     375.414E-03     359.774E-03
            2070            2336     375.414E-03     359.774E-03
            2072            2337     485.732E-03     451.744E-03
            2068            2337     485.732E-03     451.744E-03
            2069            2337     485.732E-03     451.744E-03
            2071            2337     485.732E-03     451.744E-03
            2074            2338     406.171E-03     380.536E-03
            2073            2338     406.171E-03     380.536E-03
            2070            2338     406.171E-03     380.536E-03
            2071            2338     406.171E-03     380.536E-03
            2071            2339     472.973E-03     454.051E-03
            2074            2339     472.973E-03     454.051E-03
            2075            2339     472.973E-03     454.051E-03
            2072            2339     472.973E-03     454.051E-03
            2074            2340     416.421E-03     405.111E-03
            2076            2340     416.421E-03     405.111E-03
            2077            2340     416.421E-03     405.111E-03
            2073            2340     416.421E-03     405.111E-03
            2078            2341     524.812E-03     532.752E-03
            2075            2341     524.812E-03     532.752E-03
            2077            2341     524.812E-03     532.752E-03
            2074            2341     524.812E-03     532.752E-03
            2080            2342     432.917E-03     433.820E-03
            2076            2342     432.917E-03     433.820E-03
            2077            2342     432.917E-03     433.820E-03
            2079            2342     432.917E-03     433.820E-03
            2077            2343     569.299E-03     573.894E-03
            2078            2343     569.299E-03     573.894E-03
            2081            2343     569.299E-03     573.894E-03
            2080            2343     569.299E-03     573.894E-03
            2082            2344     451.601E-03     463.394E-03
            2079            2344     451.601E-03     463.394E-03
            2080            2344     451.601E-03     463.394E-03
            2083            2344     451.601E-03     463.394E-03
            2084            2345     612.905E-03     615.033E-03
            2081            2345     612.905E-03     615.033E-03
            2083            2345     612.905E-03     615.033E-03
            2080            2345     612.905E-03     615.033E-03
            2086            2346     462.338E-03     485.815E-03
            2085            2346     462.338E-03     485.815E-03
            2082            2346     462.338E-03     485.815E-03
            2083            2346     462.338E-03     485.815E-03
            2087            2347     666.593E-03     674.764E-03
            2086            2347     666.593E-03     674.764E-03
            2083            2347     666.593E-03     674.764E-03
            2084            2347     666.593E-03     674.764E-03
            2089            2348     433.151E-03     443.334E-03
            2085            2348     433.151E-03     443.334E-03
            2086            2348     433.151E-03     443.334E-03
            2088            2348     433.151E-03     443.334E-03
            2086            2349     704.037E-03     692.002E-03
            2087            2349     704.037E-03     692.002E-03
            2090            2349     704.037E-03     692.002E-03
            2089            2349     704.037E-03     692.002E-03
            2092            2350     440.195E-03     413.289E-03
            2089            2350     440.195E-03     413.289E-03
            2091            2350     440.195E-03     413.289E-03
            2088            2350     440.195E-03     413.289E-03
            2092            2351     664.732E-03     608.979E-03
            2093            2351     664.732E-03     608.979E-03
            2090            2351     664.732E-03     608.979E-03
            2089            2351     664.732E-03     608.979E-03
            2092            2352     479.374E-03     444.377E-03
            2094            2352     479.374E-03     444.377E-03
            2095            2352     479.374E-03     444.377E-03
            2091            2352     479.374E-03     444.377E-03
            2095            2353     652.110E-03     624.008E-03
            2096            2353     652.110E-03     624.008E-03
            2093            2353     652.110E-03     624.008E-03
            2092            2353     652.110E-03     624.008E-03
            2094            2354     489.639E-03     477.734E-03
            2095            2354     489.639E-03     477.734E-03
            2098            2354     489.639E-03     477.734E-03
            2097            2354     489.639E-03     477.734E-03
            2095            2355     711.545E-03     723.508E-03
            2098            2355     711.545E-03     723.508E-03
            2099            2355     711.545E-03     723.508E-03
            2096            2355     711.545E-03     723.508E-03
            2098            2356     508.008E-03     511.306E-03
            2101            2356     508.008E-03     511.306E-03
            2100            2356     508.008E-03     511.306E-03
            2097            2356     508.008E-03     511.306E-03
            2099            2357     759.475E-03     766.030E-03
            2101            2357     759.475E-03     766.030E-03
            2098            2357     759.475E-03     766.030E-03
            2102            2357     759.475E-03     766.030E-03
            2100            2358     529.876E-03     547.569E-03
            2104            2358     529.876E-03     547.569E-03
            2103            2358     529.876E-03     547.569E-03
            2101            2358     529.876E-03     547.569E-03
            2102            2359     805.401E-03     809.266E-03
            2101            2359     805.401E-03     809.266E-03
            2105            2359     805.401E-03     809.266E-03
            2104            2359     805.401E-03     809.266E-03
            2107            2360     541.259E-03     573.601E-03
            2103            2360     541.259E-03     573.601E-03
            2104            2360     541.259E-03     573.601E-03
            2106            2360     541.259E-03     573.601E-03
            2107            2361     861.314E-03     873.827E-03
            2108            2361     861.314E-03     873.827E-03
            2105            2361     861.314E-03     873.827E-03
            2104            2361     861.314E-03     873.827E-03
            2109            2362     505.123E-03     515.007E-03
            2106            2362     505.123E-03     515.007E-03
            2107            2362     505.123E-03     515.007E-03
            2110            2362     505.123E-03     515.007E-03
            2111            2363     895.205E-03     876.469E-03
            2107            2363     895.205E-03     876.469E-03
            2110            2363     895.205E-03     876.469E-03
            2108            2363     895.205E-03     876.469E-03
            2109            2364     516.207E-03     479.513E-03
            2113            2364     516.207E-03     479.513E-03
            2110            2364     516.207E-03     479.513E-03
            2112            2364     516.207E-03     479.513E-03
            2111            2365     851.048E-03     777.421E-03
            2113            2365     851.048E-03     777.421E-03
            2110            2365     851.048E-03     777.421E-03
            2114            2365     851.048E-03     777.421E-03
            2112            2366     566.307E-03     528.020E-03
            2116            2366     566.307E-03     528.020E-03
            2113            2366     566.307E-03     528.020E-03
            2115            2366     566.307E-03     528.020E-03
            2117            2367     849.103E-03     816.813E-03
            2116            2367     849.103E-03     816.813E-03
            2114            2367     849.103E-03     816.813E-03
            2113            2367     849.103E-03     816.813E-03
            2115            2368     577.689E-03     574.526E-03
            2116            2368     577.689E-03     574.526E-03
            2119            2368     577.689E-03     574.526E-03
            2118            2368     577.689E-03     574.526E-03
            2117            2369     916.119E-03     936.826E-03
            2116            2369     916.119E-03     936.826E-03
            2119            2369     916.119E-03     936.826E-03
            2120            2369     916.119E-03     936.826E-03
            2118            2370     597.973E-03     622.376E-03
            2119            2370     597.973E-03     622.376E-03
            2121            2370     597.973E-03     622.376E-03
            2122            2370     597.973E-03     622.376E-03
            2119            2371     962.623E-03     978.346E-03
            2123            2371     962.623E-03     978.346E-03
            2122            2371     962.623E-03     978.346E-03
            2120            2371     962.623E-03     978.346E-03
            2124            2372     608.059E-03     647.242E-03
            2122            2372     608.059E-03     647.242E-03
            2121            2372     608.059E-03     647.242E-03
            2125            2372     608.059E-03     647.242E-03
            2125            2373         1.02068         1.04236
            2122            2373         1.02068         1.04236
            2123            2373         1.02068         1.04236
            2126            2373         1.02068         1.04236
            2125            2374     566.517E-03     575.832E-03
            2124            2374     566.517E-03     575.832E-03
            2127            2374     566.517E-03     575.832E-03
            2128            2374     566.517E-03     575.832E-03
            2128            2375         1.05193         1.03014
            2126            2375         1.05193         1.03014
            2125            2375         1.05193         1.03014
            2129            2375         1.05193         1.03014
            2134            2376         1.25525         1.25388
            2133            2376         1.25525         1.25388
            2130            2376         1.25525         1.25388
            2131            2376         1.25525         1.25388
            2132            2377     944.413E-03     944.054E-03
            2134            2377     944.413E-03     944.054E-03
            2131            2377     944.413E-03     944.054E-03
            2135            2377     944.413E-03     944.054E-03
            2137            2378         1.20995         1.20184
            2136            2378         1.20995         1.20184
            2133            2378         1.20995         1.20184
            2134            2378         1.20995         1.20184
            2134            2379     935.948E-03     939.555E-03
            2135            2379     935.948E-03     939.555E-03
            2138            2379     935.948E-03     939.555E-03
            2137            2379     935.948E-03     939.555E-03
            2136            2380         1.19941         1.21262
            2139            2380         1.19941         1.21262
            2140            2380         1.19941         1.21262
            2137            2380         1.19941         1.21262
            2137            2381     888.101E-03     898.980E-03
            2140            2381     888.101E-03     898.980E-03
            2141            2381     888.101E-03     898.980E-03
            2138            2381     888.101E-03     898.980E-03
            2140            2382         1.07248         1.07298
            2143            2382         1.07248         1.07298
            2142            2382         1.07248         1.07298
            2139            2382         1.07248         1.07298
            2143            2383     950.213E-03     949.729E-03
            2144            2383     950.213E-03     949.729E-03
            2141            2383     950.213E-03     949.729E-03
            2140            2383     950.213E-03     949.729E-03
            2225            2440     972.408E-03     941.456E-03
            2226            2440     972.408E-03     941.456E-03
            2228            2440     972.408E-03     941.456E-03
            2229            2440     972.408E-03     941.456E-03
            2230            2441     577.635E-03     557.023E-03
            2227            2441     577.635E-03     557.023E-03
            2226            2441     577.635E-03     557.023E-03
            2229            2441     577.635E-03     557.023E-03
            2232            2442         1.06082         1.05079
            2229            2442         1.06082         1.05079
            2231            2442         1.06082         1.05079
            2228            2442         1.06082         1.05079
            2232            2443     668.600E-03     662.088E-03
            2233            2443     668.600E-03     662.088E-03
            2230            2443     668.600E-03     662.088E-03
            2229            2443     668.600E-03     662.088E-03
            2234            2444         1.15799         1.20710
            2231            2444         1.15799         1.20710
            2235            2444         1.15799         1.20710
            2232            2444         1.15799         1.20710
            2233            2445     676.941E-03     716.119E-03
            2235            2445     676.941E-03     716.119E-03
            2236            2445     676.941E-03     716.119E-03
            2232            2445     676.941E-03     716.119E-03
            2234            2446         1.18558         1.17594
            2237            2446         1.18558         1.17594
            2238            2446         1.18558         1.17594
            2235            2446         1.18558         1.17594
            2235            2447     628.984E-03     639.567E-03
            2238            2447     628.984E-03     639.567E-03
            2239            2447     628.984E-03     639.567E-03
            2236            2447     628.984E-03     639.567E-03
            2244            2448     831.850E-03     839.454E-03
            2240            2448     831.850E-03     839.454E-03
            2243            2448     831.850E-03     839.454E-03
            2241            2448     831.850E-03     839.454E-03
            2242            2449         1.02266         1.03415
            2241            2449         1.02266         1.03415
            2244            2449         1.02266         1.03415
            2245            2449         1.02266         1.03415
            2243            2450     887.651E-03     884.773E-03
            2247            2450     887.651E-03     884.773E-03
            2246            2450     887.651E-03     884.773E-03
            2244            2450     887.651E-03     884.773E-03
            2247            2451     916.012E-03     913.356E-03
            2248            2451     916.012E-03     913.356E-03
            2245            2451     916.012E-03     913.356E-03
            2244            2451     916.012E-03     913.356E-03
            2250            2452     836.086E-03     832.370E-03
            2247            2452     836.086E-03     832.370E-03
            2249            2452     836.086E-03     832.370E-03
            2246            2452     836.086E-03     832.370E-03
            2250            2453     898.427E-03     874.178E-03
            2247            2453     898.427E-03     874.178E-03
            2251            2453     898.427E-03     874.178E-03
            2248            2453     898.427E-03     874.178E-03
            2252            2454     817.143E-03     829.208E-03
            2253            2454     817.143E-03     829.208E-03
            2249            2454     817.143E-03     829.208E-03
            2250            2454     817.143E-03     829.208E-03
            2250            2455     935.634E-03     930.595E-03
            2251            2455     935.634E-03     930.595E-03
            2254            2455     935.634E-03     930.595E-03
            2253            2455     935.634E-03     930.595E-03
            2255            2456     857.668E-03     871.033E-03
            2253            2456     857.668E-03     871.033E-03
            2256            2456     857.668E-03     871.033E-03
            2252            2456     857.668E-03     871.033E-03
            2253            2457     845.457E-03     847.878E-03
            2254            2457     845.457E-03     847.878E-03
            2256            2457     845.457E-03     847.878E-03
            2257            2457     845.457E-03     847.878E-03
            2258            2458     847.195E-03     852.292E-03
            2255            2458     847.195E-03     852.292E-03
            2259            2458     847.195E-03     852.292E-03
            2256            2458     847.195E-03     852.292E-03
            2259            2459     753.617E-03     754.441E-03
            2257            2459     753.617E-03     754.441E-03
            2260            2459     753.617E-03     754.441E-03
            2256            2459     753.617E-03     754.441E-03
            2261            2460     831.566E-03     829.321E-03
            2258            2460     831.566E-03     829.321E-03
            2259            2460     831.566E-03     829.321E-03
            2262            2460     831.566E-03     829.321E-03
            2263            2461     694.360E-03     698.537E-03
            2259            2461     694.360E-03     698.537E-03
            2260            2461     694.360E-03     698.537E-03
            2262            2461     694.360E-03     698.537E-03
            2264            2462     817.328E-03     804.958E-03
            2262            2462     817.328E-03     804.958E-03
            2261            2462     817.328E-03     804.958E-03
            2265            2462     817.328E-03     804.958E-03
            2263            2463     663.750E-03     668.152E-03
            2265            2463     663.750E-03     668.152E-03
            2262            2463     663.750E-03     668.152E-03
            2266            2463     663.750E-03     668.152E-03
            2264            2464     789.020E-03     774.492E-03
            2268            2464     789.020E-03     774.492E-03
            2265            2464     789.020E-03     774.492E-03
            2267            2464     789.020E-03     774.492E-03
            2265            2465     659.209E-03     658.328E-03
            2266            2465     659.209E-03     658.328E-03
            2268            2465     659.209E-03     658.328E-03
            2269            2465     659.209E-03     658.328E-03
            2271            2466     582.567E-03     575.605E-03
            2267            2466     582.567E-03     575.605E-03
            2270            2466     582.567E-03     575.605E-03
            2268            2466     582.567E-03     575.605E-03
            2269            2467     527.397E-03     523.688E-03
            2268            2467     527.397E-03     523.688E-03
            2271            2467     527.397E-03     523.688E-03
            2272            2467     527.397E-03     523.688E-03
            2750            2844     432.831E-06     432.878E-06
            2747            2844     432.831E-06     432.878E-06
            2749            2844     432.831E-06     432.878E-06
            2746            2844     432.831E-06     432.878E-06
            2751            2845     414.350E-06     421.589E-06
            2748            2845     414.350E-06     421.589E-06
            2747            2845     414.350E-06     421.589E-06
            2750            2845     414.350E-06     421.589E-06
            2749            2846     388.060E-06     392.480E-06
            2750            2846     388.060E-06     392.480E-06
            2752            2846     388.060E-06     392.480E-06
            2753            2846     388.060E-06     392.480E-06
            2750            2847     431.693E-06     439.923E-06
            2753            2847     431.693E-06     439.923E-06
            2754            2847     431.693E-06     439.923E-06
            2751            2847     431.693E-06     439.923E-06
            2753            2848     350.566E-06     354.156E-06
            2755            2848     350.566E-06     354.156E-06
            2752            2848     350.566E-06     354.156E-06
            2756            2848     350.566E-06     354.156E-06
            2754            2849     428.842E-06     433.115E-06
            2757            2849     428.842E-06     433.115E-06
            2753            2849     428.842E-06     433.115E-06
            2756            2849     428.842E-06     433.115E-06
            2756            2850     339.556E-06     344.409E-06
            2759            2850     339.556E-06     344.409E-06
            2758            2850     339.556E-06     344.409E-06
            2755            2850     339.556E-06     344.409E-06
            2757            2851     422.830E-06     423.735E-06
            2759            2851     422.830E-06     423.735E-06
            2756            2851     422.830E-06     423.735E-06
            2760            2851     422.830E-06     423.735E-06
            2759            2852     344.493E-06     347.769E-06
            2762            2852     344.493E-06     347.769E-06
            2761            2852     344.493E-06     347.769E-06
            2758            2852     344.493E-06     347.769E-06
            2759            2853     408.931E-06     408.132E-06
            2760            2853     408.931E-06     408.132E-06
            2762            2853     408.931E-06     408.132E-06
            2763            2853     408.931E-06     408.132E-06
            2823            2894     414.350E-06     421.589E-06
            2820            2894     414.350E-06     421.589E-06
            2819            2894     414.350E-06     421.589E-06
            2822            2894     414.350E-06     421.589E-06
            2823            2895     432.831E-06     432.878E-06
            2821            2895     432.831E-06     432.878E-06
            2820            2895     432.831E-06     432.878E-06
            2824            2895     432.831E-06     432.878E-06
            2826            2896     431.693E-06     439.923E-06
            2823            2896     431.693E-06     439.923E-06
            2825            2896     431.693E-06     439.923E-06
            2822            2896     431.693E-06     439.923E-06
            2826            2897     388.060E-06     392.480E-06
            2824            2897     388.060E-06     392.480E-06
            2823            2897     388.060E-06     392.480E-06
            2827            2897     388.060E-06     392.480E-06
            2825            2898     428.842E-06     433.115E-06
            2828            2898     428.842E-06     433.115E-06
            2826            2898     428.842E-06     433.115E-06
            2829            2898     428.842E-06     433.115E-06
            2826            2899     350.566E-06     354.156E-06
            2829            2899     350.566E-06     354.156E-06
            2830            2899     350.566E-06     354.156E-06
            2827            2899     350.566E-06     354.156E-06
            2832            2900     422.830E-06     423.735E-06
            2831            2900     422.830E-06     423.735E-06
            2829            2900     422.830E-06     423.735E-06
            2828            2900     422.830E-06     423.735E-06
            2832            2901     339.556E-06     344.409E-06
            2833            2901     339.556E-06     344.409E-06
            2829            2901     339.556E-06     344.409E-06
            2830            2901     339.556E-06     344.409E-06
            2834            2902     408.931E-06     408.132E-06
            2835            2902     408.931E-06     408.132E-06
            2832            2902     408.931E-06     408.132E-06
            2831            2902     408.931E-06     408.132E-06
            2836            2903     344.493E-06     347.769E-06
            2835            2903     344.493E-06     347.769E-06
            2832            2903     344.493E-06     347.769E-06
            2833            2903     344.493E-06     347.769E-06
            2837            2904     938.954E-03     939.185E-03
            2840            2904     938.954E-03     939.185E-03
            2838            2904     938.954E-03     939.185E-03
            2841            2904     938.954E-03     939.185E-03
            2842            2905         1.24697         1.24588
            2841            2905         1.24697         1.24588
            2838            2905         1.24697         1.24588
            2839            2905         1.24697         1.24588
            2844            2906     932.173E-03     935.422E-03
            2840            2906     932.173E-03     935.422E-03
            2843            2906     932.173E-03     935.422E-03
            2841            2906     932.173E-03     935.422E-03
            2844            2907         1.20378         1.19480
            2845            2907         1.20378         1.19480
            2841            2907         1.20378         1.19480
            2842            2907         1.20378         1.19480
            2844            2908     884.044E-03     896.591E-03
            2846            2908     884.044E-03     896.591E-03
            2843            2908     884.044E-03     896.591E-03
            2847            2908     884.044E-03     896.591E-03
            2844            2909         1.19256         1.20864
            2845            2909         1.19256         1.20864
            2847            2909         1.19256         1.20864
            2848            2909         1.19256         1.20864
            2846            2910     948.357E-03     946.306E-03
            2847            2910     948.357E-03     946.306E-03
            2849            2910     948.357E-03     946.306E-03
            2850            2910     948.357E-03     946.306E-03
            2847            2911         1.06900         1.06715
            2848            2911         1.06900         1.06715
            2851            2911         1.06900         1.06715
            2850            2911         1.06900         1.06715
            2882            2932         1.02513         1.03415
            2886            2932         1.02513         1.03415
            2885            2932         1.02513         1.03415
            2883            2932         1.02513         1.03415
            2883            2933     833.131E-03     839.492E-03
            2884            2933     833.131E-03     839.492E-03
            2886            2933     833.131E-03     839.492E-03
            2887            2933     833.131E-03     839.492E-03
            2885            2934     916.049E-03     915.381E-03
            2888            2934     916.049E-03     915.381E-03
            2889            2934     916.049E-03     915.381E-03
            2886            2934     916.049E-03     915.381E-03
            2887            2935     887.535E-03     885.952E-03
            2886            2935     887.535E-03     885.952E-03
            2889            2935     887.535E-03     885.952E-03
            2890            2935     887.535E-03     885.952E-03
            2889            2936     896.284E-03     873.180E-03
            2888            2936     896.284E-03     873.180E-03
            2892            2936     896.284E-03     873.180E-03
            2891            2936     896.284E-03     873.180E-03
            2892            2937     834.883E-03     831.986E-03
            2893            2937     834.883E-03     831.986E-03
            2890            2937     834.883E-03     831.986E-03
            2889            2937     834.883E-03     831.986E-03
            2891            2938     932.104E-03     926.146E-03
            2892            2938     932.104E-03     926.146E-03
            2894            2938     932.104E-03     926.146E-03
            2895            2938     932.104E-03     926.146E-03
            2893            2939     815.320E-03     826.965E-03
            2895            2939     815.320E-03     826.965E-03
            2896            2939     815.320E-03     826.965E-03
            2892            2939     815.320E-03     826.965E-03
            2894            2940     841.967E-03     843.891E-03
            2897            2940     841.967E-03     843.891E-03
            2895            2940     841.967E-03     843.891E-03
            2898            2940     841.967E-03     843.891E-03
            2896            2941     855.887E-03     868.949E-03
            2898            2941     855.887E-03     868.949E-03
            2895            2941     855.887E-03     868.949E-03
            2899            2941     855.887E-03     868.949E-03
            2901            2942     750.901E-03     750.647E-03
            2900            2942     750.901E-03     750.647E-03
            2898            2942     750.901E-03     750.647E-03
            2897            2942     750.901E-03     750.647E-03
            2899            2943     846.014E-03     850.291E-03
            2901            2943     846.014E-03     850.291E-03
            2898            2943     846.014E-03     850.291E-03
            2902            2943     846.014E-03     850.291E-03
            2903            2944     692.276E-03     695.468E-03
            2901            2944     692.276E-03     695.468E-03
            2904            2944     692.276E-03     695.468E-03
            2900            2944     692.276E-03     695.468E-03
            2904            2945     830.930E-03     827.844E-03
            2902            2945     830.930E-03     827.844E-03
            2905            2945     830.930E-03     827.844E-03
            2901            2945     830.930E-03     827.844E-03
            2903            2946     662.758E-03     666.536E-03
            2906            2946     662.758E-03     666.536E-03
            2904            2946     662.758E-03     666.536E-03
            2907            2946     662.758E-03     666.536E-03
            2907            2947     816.793E-03     804.573E-03
            2905            2947     816.793E-03     804.573E-03
            2908            2947     816.793E-03     804.573E-03
            2904            2947     816.793E-03     804.573E-03
            2907            2948     659.567E-03     659.220E-03
            2910            2948     659.567E-03     659.220E-03
            2909            2948     659.567E-03     659.220E-03
            2906            2948     659.567E-03     659.220E-03
            2908            2949     788.675E-03     774.990E-03
            2910            2949     788.675E-03     774.990E-03
            2907            2949     788.675E-03     774.990E-03
            2911            2949     788.675E-03     774.990E-03
            2910            2950     527.507E-03     524.406E-03
            2909            2950     527.507E-03     524.406E-03
            2912            2950     527.507E-03     524.406E-03
            2913            2950     527.507E-03     524.406E-03
            2911            2951     582.299E-03     575.744E-03
            2914            2951     582.299E-03     575.744E-03
            2910            2951     582.299E-03     575.744E-03
            2913            2951     582.299E-03     575.744E-03


  Minimum                            275.252E-06     283.016E-06
      At Element                            2833            2833
            Node                             565             565

  Maximum                                1.56583         1.51317
      At Element                            2237            2237
            Node                              20              20

           Total                         856.840         851.914


Field Output reported at element nodes for region: CRJ700-1.Region_3
   Computation algorithm: EXTRAPOLATE_COMPUTE_AVERAGE
   Averaged at nodes
   Averaging regions: ODB_REGIONS

   Element Label      Node Label         S.Mises         S.Mises
                                          @Loc 1          @Loc 2
-----------------------------------------------------------------
               1               1     3.12475E-03     3.52066E-03
            2288               1     3.12475E-03     3.52066E-03
            2273               2     10.7975E-03     11.1084E-03
              16               2     10.7975E-03     11.1084E-03
            1009               3         1.37411         1.42625
             544               3         1.37411         1.42625
             529               4     48.4543E-03     70.3144E-03
             994               4     48.4543E-03     70.3144E-03
            2368               7     155.127E-06     191.663E-06
            2353               9     47.6443E-06     102.842E-06
            1768              16         1.55973         1.67516
            1073              16         1.55973         1.67516
            1058              18     101.487E-03     164.919E-03
            1753              18     101.487E-03     164.919E-03
            1832              21         1.04754         1.09718
            3026              21         1.04754         1.09718
            3011              22     157.797E-03     175.010E-03
            1817              22     157.797E-03     175.010E-03
            2560              28     28.9318E-03     29.7460E-03
            3186              28     28.9318E-03     29.7460E-03
            2545              30     12.7798E-03     13.7136E-03
            3171              30     12.7798E-03     13.7136E-03
            2640              31     47.4694E-06     102.847E-06
            2625              32     154.843E-06     191.321E-06
               2              36     3.17663E-03     3.57886E-03
            2288              36     3.17663E-03     3.57886E-03
            2287              36     3.17663E-03     3.57886E-03
               1              36     3.17663E-03     3.57886E-03
               3              37     3.34403E-03     3.75556E-03
            2287              37     3.34403E-03     3.75556E-03
               2              37     3.34403E-03     3.75556E-03
            2286              37     3.34403E-03     3.75556E-03
            2285              38     3.62818E-03     4.04158E-03
               4              38     3.62818E-03     4.04158E-03
               3              38     3.62818E-03     4.04158E-03
            2286              38     3.62818E-03     4.04158E-03
            2285              39     4.00733E-03     4.41426E-03
               4              39     4.00733E-03     4.41426E-03
            2284              39     4.00733E-03     4.41426E-03
               5              39     4.00733E-03     4.41426E-03
            2284              40     4.45743E-03     4.85311E-03
            2283              40     4.45743E-03     4.85311E-03
               6              40     4.45743E-03     4.85311E-03
               5              40     4.45743E-03     4.85311E-03
            2282              41     4.95906E-03     5.34194E-03
               7              41     4.95906E-03     5.34194E-03
               6              41     4.95906E-03     5.34194E-03
            2283              41     4.95906E-03     5.34194E-03
            2281              42     5.49826E-03     5.86793E-03
            2282              42     5.49826E-03     5.86793E-03
               8              42     5.49826E-03     5.86793E-03
               7              42     5.49826E-03     5.86793E-03
            2281              43     6.06493E-03     6.42215E-03
               8              43     6.06493E-03     6.42215E-03
               9              43     6.06493E-03     6.42215E-03
            2280              43     6.06493E-03     6.42215E-03
              10              44     6.65173E-03     6.99753E-03
               9              44     6.65173E-03     6.99753E-03
            2280              44     6.65173E-03     6.99753E-03
            2279              44     6.65173E-03     6.99753E-03
            2278              45     7.25404E-03     7.58933E-03
            2279              45     7.25404E-03     7.58933E-03
              11              45     7.25404E-03     7.58933E-03
              10              45     7.25404E-03     7.58933E-03
              11              46     7.86737E-03     8.19357E-03
            2277              46     7.86737E-03     8.19357E-03
              12              46     7.86737E-03     8.19357E-03
            2278              46     7.86737E-03     8.19357E-03
              12              47     8.49025E-03     8.80808E-03
              13              47     8.49025E-03     8.80808E-03
            2277              47     8.49025E-03     8.80808E-03
            2276              47     8.49025E-03     8.80808E-03
            2276              48     9.12157E-03     9.43253E-03
              14              48     9.12157E-03     9.43253E-03
            2275              48     9.12157E-03     9.43253E-03
              13              48     9.12157E-03     9.43253E-03
              15              49     9.76508E-03     10.0711E-03
            2275              49     9.76508E-03     10.0711E-03
            2274              49     9.76508E-03     10.0711E-03
              14              49     9.76508E-03     10.0711E-03
            2273              50     10.4447E-03     10.7518E-03
              16              50     10.4447E-03     10.7518E-03
              15              50     10.4447E-03     10.7518E-03
            2274              50     10.4447E-03     10.7518E-03
              32              51     46.1924E-03     55.7367E-03
              16              51     46.1924E-03     55.7367E-03
              48              52     91.5178E-03     100.514E-03
              32              52     91.5178E-03     100.514E-03
              48              53     138.823E-03     135.679E-03
              64              53     138.823E-03     135.679E-03
              80              54     191.783E-03     187.096E-03
              64              54     191.783E-03     187.096E-03
              80              55     239.063E-03     245.738E-03
              96              55     239.063E-03     245.738E-03
              96              56     298.323E-03     295.085E-03
             112              56     298.323E-03     295.085E-03
             128              57     348.495E-03     363.704E-03
             112              57     348.495E-03     363.704E-03
             128              58     331.880E-03     343.219E-03
             144              58     331.880E-03     343.219E-03
             144              59     334.532E-03     323.716E-03
             160              59     334.532E-03     323.716E-03
             160              60     408.485E-03     410.232E-03
             176              60     408.485E-03     410.232E-03
             192              61     470.883E-03     482.305E-03
             176              61     470.883E-03     482.305E-03
             208              62     534.089E-03     534.558E-03
             192              62     534.089E-03     534.558E-03
             224              63     585.862E-03     601.503E-03
             208              63     585.862E-03     601.503E-03
             224              64     568.140E-03     584.328E-03
             240              64     568.140E-03     584.328E-03
             256              65     581.621E-03     566.822E-03
             240              65     581.621E-03     566.822E-03
             272              66     653.566E-03     661.873E-03
             256              66     653.566E-03     661.873E-03
             272              67     723.215E-03     729.206E-03
             288              67     723.215E-03     729.206E-03
             288              68     776.376E-03     794.144E-03
             304              68     776.376E-03     794.144E-03
             320              69     837.215E-03     840.666E-03
             304              69     837.215E-03     840.666E-03
             320              70     883.092E-03     898.540E-03
             336              70     883.092E-03     898.540E-03
             336              71     854.214E-03     877.368E-03
             352              71     854.214E-03     877.368E-03
             368              72     871.128E-03     856.088E-03
             352              72     871.128E-03     856.088E-03
             368              73     947.739E-03     959.181E-03
             384              73     947.739E-03     959.181E-03
             384              74         1.01951         1.03073
             400              74         1.01951         1.03073
             416              75         1.07303         1.09607
             400              75         1.07303         1.09607
             432              76         1.13262         1.13906
             416              76         1.13262         1.13906
             448              77         1.17438         1.18989
             432              77         1.17438         1.18989
             464              78         1.13872         1.16892
             448              78         1.13872         1.16892
             464              79         1.15746         1.14938
             480              79         1.15746         1.14938
             480              80         1.24856         1.25597
             496              80         1.24856         1.25597
             496              81         1.31169         1.34669
             512              81         1.31169         1.34669
             528              82         1.37694         1.38269
             512              82         1.37694         1.38269
             528              83         1.41347         1.43281
             544              83         1.41347         1.43281
            1009              84         1.29553         1.33861
             543              84         1.29553         1.33861
            1008              84         1.29553         1.33861
             544              84         1.29553         1.33861
             542              85         1.17207         1.20318
            1007              85         1.17207         1.20318
            1008              85         1.17207         1.20318
             543              85         1.17207         1.20318
            1007              86         1.08067         1.11249
             542              86         1.08067         1.11249
            1006              86         1.08067         1.11249
             541              86         1.08067         1.11249
            1005              87     993.473E-03         1.02830
            1006              87     993.473E-03         1.02830
             540              87     993.473E-03         1.02830
             541              87     993.473E-03         1.02830
            1005              88     910.363E-03     946.511E-03
            1004              88     910.363E-03     946.511E-03
             539              88     910.363E-03     946.511E-03
             540              88     910.363E-03     946.511E-03
             538              89     827.204E-03     864.598E-03
            1004              89     827.204E-03     864.598E-03
             539              89     827.204E-03     864.598E-03
            1003              89     827.204E-03     864.598E-03
            1002              90     744.433E-03     782.002E-03
             538              90     744.433E-03     782.002E-03
             537              90     744.433E-03     782.002E-03
            1003              90     744.433E-03     782.002E-03
             536              91     660.992E-03     698.909E-03
            1002              91     660.992E-03     698.909E-03
             537              91     660.992E-03     698.909E-03
            1001              91     660.992E-03     698.909E-03
            1000              92     577.383E-03     615.269E-03
            1001              92     577.383E-03     615.269E-03
             535              92     577.383E-03     615.269E-03
             536              92     577.383E-03     615.269E-03
            1000              93     493.278E-03     531.386E-03
             999              93     493.278E-03     531.386E-03
             534              93     493.278E-03     531.386E-03
             535              93     493.278E-03     531.386E-03
             998              94     409.199E-03     447.264E-03
             534              94     409.199E-03     447.264E-03
             533              94     409.199E-03     447.264E-03
             999              94     409.199E-03     447.264E-03
             532              95     325.202E-03     362.885E-03
             997              95     325.202E-03     362.885E-03
             533              95     325.202E-03     362.885E-03
             998              95     325.202E-03     362.885E-03
             997              96     241.893E-03     278.247E-03
             996              96     241.893E-03     278.247E-03
             531              96     241.893E-03     278.247E-03
             532              96     241.893E-03     278.247E-03
             530              97     160.455E-03     193.558E-03
             531              97     160.455E-03     193.558E-03
             995              97     160.455E-03     193.558E-03
             996              97     160.455E-03     193.558E-03
             530              98     84.4925E-03     110.697E-03
             994              98     84.4925E-03     110.697E-03
             529              98     84.4925E-03     110.697E-03
             995              98     84.4925E-03     110.697E-03
             513              99     35.0775E-03     74.3187E-03
             529              99     35.0775E-03     74.3187E-03
             513             100     39.1181E-03     79.5657E-03
             497             100     39.1181E-03     79.5657E-03
             481             101     85.9657E-03     91.8835E-03
             497             101     85.9657E-03     91.8835E-03
             481             102     134.166E-03     145.396E-03
             465             102     134.166E-03     145.396E-03
             465             103     168.899E-03     206.049E-03
             449             103     168.899E-03     206.049E-03
             449             104     110.002E-03     139.814E-03
             433             104     110.002E-03     139.814E-03
             433             105     26.1108E-03     57.7113E-03
             417             105     26.1108E-03     57.7113E-03
             417             106     34.1641E-03     56.8324E-03
             401             106     34.1641E-03     56.8324E-03
             401             107     68.8839E-03     76.7482E-03
             385             107     68.8839E-03     76.7482E-03
             385             108     104.089E-03     104.092E-03
             369             108     104.089E-03     104.092E-03
             353             109     141.966E-03     149.147E-03
             369             109     141.966E-03     149.147E-03
             337             110     166.410E-03     199.373E-03
             353             110     166.410E-03     199.373E-03
             337             111     93.9142E-03     123.437E-03
             321             111     93.9142E-03     123.437E-03
             321             112     22.1814E-03     38.1742E-03
             305             112     22.1814E-03     38.1742E-03
             289             113     45.4286E-03     48.7103E-03
             305             113     45.4286E-03     48.7103E-03
             289             114     71.9503E-03     71.4687E-03
             273             114     71.9503E-03     71.4687E-03
             257             115     97.6560E-03     93.0246E-03
             273             115     97.6560E-03     93.0246E-03
             257             116     124.853E-03     126.760E-03
             241             116     124.853E-03     126.760E-03
             241             117     140.234E-03     165.454E-03
             225             117     140.234E-03     165.454E-03
             225             118     85.8300E-03     109.247E-03
             209             118     85.8300E-03     109.247E-03
             209             119     42.2593E-03     44.7841E-03
             193             119     42.2593E-03     44.7841E-03
             177             120     63.7862E-03     57.7773E-03
             193             120     63.7862E-03     57.7773E-03
             161             121     81.3304E-03     71.9928E-03
             177             121     81.3304E-03     71.9928E-03
             145             122     99.1883E-03     94.8204E-03
             161             122     99.1883E-03     94.8204E-03
             145             123     107.131E-03     122.158E-03
             129             123     107.131E-03     122.158E-03
             113             124     78.8346E-03     96.5060E-03
             129             124     78.8346E-03     96.5060E-03
              97             125     59.3393E-03     64.6147E-03
             113             125     59.3393E-03     64.6147E-03
              97             126     72.8511E-03     64.1325E-03
              81             126     72.8511E-03     64.1325E-03
              65             127     79.5921E-03     70.6689E-03
              81             127     79.5921E-03     70.6689E-03
              49             128     86.3237E-03     76.8339E-03
              65             128     86.3237E-03     76.8339E-03
              49             129     93.5443E-03     87.4007E-03
              33             129     93.5443E-03     87.4007E-03
              17             130     91.9135E-03     103.890E-03
              33             130     91.9135E-03     103.890E-03
              17             131     46.9753E-03     57.2262E-03
               1             131     46.9753E-03     57.2262E-03
            2352             167     167.689E-06     183.189E-06
            2368             167     167.689E-06     183.189E-06
            2336             168     176.728E-06     161.853E-06
            2352             168     176.728E-06     161.853E-06
            2320             169     169.767E-06     147.862E-06
            2336             169     169.767E-06     147.862E-06
            2304             170     164.432E-06     148.228E-06
            2320             170     164.432E-06     148.228E-06
            2304             171     145.013E-06     154.999E-06
            2288             171     145.013E-06     154.999E-06
            2289             176     330.714E-06     347.722E-06
            2273             176     330.714E-06     347.722E-06
            2305             177     250.592E-06     248.871E-06
            2289             177     250.592E-06     248.871E-06
            2321             178     166.192E-06     168.438E-06
            2305             178     166.192E-06     168.438E-06
            2337             179     90.7798E-06     85.0228E-06
            2321             179     90.7798E-06     85.0228E-06
            2337             180     45.3393E-06     77.0169E-06
            2353             180     45.3393E-06     77.0169E-06
            1025             314         1.36806         1.37697
            1009             314         1.36806         1.37697
            1025             315         1.44715         1.45762
            1041             315         1.44715         1.45762
            1057             316         1.55394         1.55931
            1041             316         1.55394         1.55931
            1073             317         1.60213         1.63527
            1057             317         1.60213         1.63527
            1768             324         1.44154         1.55652
            1073             324         1.44154         1.55652
            1767             324         1.44154         1.55652
            1072             324         1.44154         1.55652
            1072             325         1.29002         1.39527
            1071             325         1.29002         1.39527
            1766             325         1.29002         1.39527
            1767             325         1.29002         1.39527
            1766             326         1.20247         1.30850
            1071             326         1.20247         1.30850
            1070             326         1.20247         1.30850
            1765             326         1.20247         1.30850
            1070             327         1.10627         1.21630
            1764             327         1.10627         1.21630
            1765             327         1.10627         1.21630
            1069             327         1.10627         1.21630
            1069             328         1.01502         1.12422
            1764             328         1.01502         1.12422
            1068             328         1.01502         1.12422
            1763             328         1.01502         1.12422
            1068             329     920.747E-03         1.03212
            1067             329     920.747E-03         1.03212
            1762             329     920.747E-03         1.03212
            1763             329     920.747E-03         1.03212
            1067             330     827.491E-03     938.221E-03
            1762             330     827.491E-03     938.221E-03
            1761             330     827.491E-03     938.221E-03
            1066             330     827.491E-03     938.221E-03
            1066             331     732.819E-03     844.725E-03
            1760             331     732.819E-03     844.725E-03
            1065             331     732.819E-03     844.725E-03
            1761             331     732.819E-03     844.725E-03
            1760             332     638.716E-03     750.501E-03
            1759             332     638.716E-03     750.501E-03
            1064             332     638.716E-03     750.501E-03
            1065             332     638.716E-03     750.501E-03
            1064             333     544.209E-03     656.545E-03
            1063             333     544.209E-03     656.545E-03
            1758             333     544.209E-03     656.545E-03
            1759             333     544.209E-03     656.545E-03
            1757             334     450.246E-03     562.581E-03
            1758             334     450.246E-03     562.581E-03
            1062             334     450.246E-03     562.581E-03
            1063             334     450.246E-03     562.581E-03
            1757             335     356.604E-03     469.016E-03
            1756             335     356.604E-03     469.016E-03
            1061             335     356.604E-03     469.016E-03
            1062             335     356.604E-03     469.016E-03
            1755             336     265.934E-03     376.216E-03
            1756             336     265.934E-03     376.216E-03
            1061             336     265.934E-03     376.216E-03
            1060             336     265.934E-03     376.216E-03
            1060             337     181.202E-03     284.030E-03
            1755             337     181.202E-03     284.030E-03
            1059             337     181.202E-03     284.030E-03
            1754             337     181.202E-03     284.030E-03
            1753             338     121.062E-03     201.285E-03
            1059             338     121.062E-03     201.285E-03
            1754             338     121.062E-03     201.285E-03
            1058             338     121.062E-03     201.285E-03
            1042             339     84.1865E-03     117.428E-03
            1058             339     84.1865E-03     117.428E-03
            1042             340     119.399E-03     143.047E-03
            1026             340     119.399E-03     143.047E-03
            1026             341     157.791E-03     192.666E-03
            1010             341     157.791E-03     192.666E-03
             994             342     108.651E-03     135.154E-03
            1010             342     108.651E-03     135.154E-03
            1768             393         1.44961         1.47199
            1784             393         1.44961         1.47199
            1800             394         1.38135         1.40134
            1784             394         1.38135         1.40134
            1816             395         1.32686         1.37832
            1800             395         1.32686         1.37832
            1832             396         1.15076         1.10772
            1816             396         1.15076         1.10772
            1832             397         1.01455         1.05230
            3026             397         1.01455         1.05230
            1831             397         1.01455         1.05230
            3025             397         1.01455         1.05230
            3024             398     962.968E-03     986.100E-03
            1830             398     962.968E-03     986.100E-03
            1831             398     962.968E-03     986.100E-03
            3025             398     962.968E-03     986.100E-03
            3023             399     908.862E-03     930.874E-03
            1830             399     908.862E-03     930.874E-03
            3024             399     908.862E-03     930.874E-03
            1829             399     908.862E-03     930.874E-03
            3022             400     841.789E-03     865.979E-03
            3023             400     841.789E-03     865.979E-03
            1828             400     841.789E-03     865.979E-03
            1829             400     841.789E-03     865.979E-03
            3021             401     776.780E-03     801.157E-03
            1828             401     776.780E-03     801.157E-03
            3022             401     776.780E-03     801.157E-03
            1827             401     776.780E-03     801.157E-03
            3021             402     710.395E-03     734.695E-03
            1826             402     710.395E-03     734.695E-03
            3020             402     710.395E-03     734.695E-03
            1827             402     710.395E-03     734.695E-03
            3019             403     644.310E-03     668.643E-03
            3020             403     644.310E-03     668.643E-03
            1825             403     644.310E-03     668.643E-03
            1826             403     644.310E-03     668.643E-03
            1825             404     578.120E-03     602.447E-03
            3018             404     578.120E-03     602.447E-03
            3019             404     578.120E-03     602.447E-03
            1824             404     578.120E-03     602.447E-03
            1824             405     512.511E-03     536.873E-03
            3018             405     512.511E-03     536.873E-03
            3017             405     512.511E-03     536.873E-03
            1823             405     512.511E-03     536.873E-03
            1823             406     447.686E-03     472.012E-03
            1822             406     447.686E-03     472.012E-03
            3016             406     447.686E-03     472.012E-03
            3017             406     447.686E-03     472.012E-03
            3015             407     384.288E-03     408.483E-03
            1822             407     384.288E-03     408.483E-03
            1821             407     384.288E-03     408.483E-03
            3016             407     384.288E-03     408.483E-03
            3015             408     323.075E-03     346.976E-03
            3014             408     323.075E-03     346.976E-03
            1821             408     323.075E-03     346.976E-03
            1820             408     323.075E-03     346.976E-03
            1820             409     265.568E-03     289.613E-03
            3013             409     265.568E-03     289.613E-03
            3014             409     265.568E-03     289.613E-03
            1819             409     265.568E-03     289.613E-03
            3012             410     217.754E-03     240.506E-03
            3013             410     217.754E-03     240.506E-03
            1818             410     217.754E-03     240.506E-03
            1819             410     217.754E-03     240.506E-03
            1817             411     177.586E-03     196.866E-03
            1818             411     177.586E-03     196.866E-03
            3011             411     177.586E-03     196.866E-03
            3012             411     177.586E-03     196.866E-03
            1801             412     201.775E-03     207.282E-03
            1817             412     201.775E-03     207.282E-03
            1801             413     146.085E-03     173.901E-03
            1785             413     146.085E-03     173.901E-03
            1785             414     152.812E-03     157.908E-03
            1769             414     152.812E-03     157.908E-03
            1769             415     169.049E-03     187.201E-03
            1753             415     169.049E-03     187.201E-03
            3042             470         1.00710         1.06005
            3026             470         1.00710         1.06005
            3042             471     849.056E-03     797.985E-03
            3058             471     849.056E-03     797.985E-03
            3074             472     804.834E-03     840.688E-03
            3058             472     804.834E-03     840.688E-03
            3090             473     836.869E-03     875.313E-03
            3074             473     836.869E-03     875.313E-03
            3106             474     719.326E-03     710.620E-03
            3090             474     719.326E-03     710.620E-03
            3106             475     578.872E-03     594.453E-03
            3122             475     578.872E-03     594.453E-03
            3138             476     467.866E-03     455.888E-03
            3122             476     467.866E-03     455.888E-03
            3138             477     343.901E-03     335.071E-03
            3154             477     343.901E-03     335.071E-03
            3170             478     232.775E-03     254.156E-03
            3154             478     232.775E-03     254.156E-03
            3186             479     120.958E-03     144.515E-03
            3170             479     120.958E-03     144.515E-03
            2367             492     165.173E-06     185.160E-06
            2368             492     165.173E-06     185.160E-06
            2366             493     178.024E-06     176.526E-06
            2367             493     178.024E-06     176.526E-06
            2366             494     182.001E-06     174.817E-06
            2365             494     182.001E-06     174.817E-06
            2364             495     185.504E-06     175.512E-06
            2365             495     185.504E-06     175.512E-06
            2363             496     188.893E-06     176.293E-06
            2364             496     188.893E-06     176.293E-06
            2362             497     192.230E-06     177.976E-06
            2363             497     192.230E-06     177.976E-06
            2361             498     195.609E-06     179.467E-06
            2362             498     195.609E-06     179.467E-06
            2361             499     199.162E-06     181.521E-06
            2360             499     199.162E-06     181.521E-06
            2359             500     201.729E-06     182.837E-06
            2360             500     201.729E-06     182.837E-06
            2358             501     204.001E-06     183.476E-06
            2359             501     204.001E-06     183.476E-06
            2358             502     202.213E-06     181.136E-06
            2357             502     202.213E-06     181.136E-06
            2356             503     196.335E-06     172.926E-06
            2357             503     196.335E-06     172.926E-06
            2355             504     177.106E-06     152.519E-06
            2356             504     177.106E-06     152.519E-06
            2354             505     143.997E-06     115.202E-06
            2355             505     143.997E-06     115.202E-06
            2353             506     87.9145E-06     98.1629E-06
            2354             506     87.9145E-06     98.1629E-06
            3027             522     148.447E-03     167.247E-03
            3011             522     148.447E-03     167.247E-03
            3043             523     189.119E-03     188.785E-03
            3027             523     189.119E-03     188.785E-03
            3059             524     149.660E-03     171.475E-03
            3043             524     149.660E-03     171.475E-03
            3059             525     137.379E-03     158.066E-03
            3075             525     137.379E-03     158.066E-03
            3091             526     174.834E-03     154.044E-03
            3075             526     174.834E-03     154.044E-03
            3091             527     190.210E-03     169.271E-03
            3107             527     190.210E-03     169.271E-03
            3107             528     206.191E-03     182.854E-03
            3123             528     206.191E-03     182.854E-03
            3139             529     222.756E-03     207.416E-03
            3123             529     222.756E-03     207.416E-03
            3155             530     215.901E-03     246.663E-03
            3139             530     215.901E-03     246.663E-03
            3171             531     114.630E-03     141.373E-03
            3155             531     114.630E-03     141.373E-03
            3171             547     12.8508E-03     13.8009E-03
            3172             547     12.8508E-03     13.8009E-03
            2545             547     12.8508E-03     13.8009E-03
            2546             547     12.8508E-03     13.8009E-03
            3172             548     13.1012E-03     14.0802E-03
            3173             548     13.1012E-03     14.0802E-03
            2546             548     13.1012E-03     14.0802E-03
            2547             548     13.1012E-03     14.0802E-03
            3173             549     13.5609E-03     14.5594E-03
            2548             549     13.5609E-03     14.5594E-03
            2547             549     13.5609E-03     14.5594E-03
            3174             549     13.5609E-03     14.5594E-03
            2549             550     14.2133E-03     15.2180E-03
            3175             550     14.2133E-03     15.2180E-03
            2548             550     14.2133E-03     15.2180E-03
            3174             550     14.2133E-03     15.2180E-03
            3176             551     15.0335E-03     16.0334E-03
            2549             551     15.0335E-03     16.0334E-03
            2550             551     15.0335E-03     16.0334E-03
            3175             551     15.0335E-03     16.0334E-03
            2551             552     15.9960E-03     16.9834E-03
            3177             552     15.9960E-03     16.9834E-03
            3176             552     15.9960E-03     16.9834E-03
            2550             552     15.9960E-03     16.9834E-03
            3177             553     17.0770E-03     18.0464E-03
            2551             553     17.0770E-03     18.0464E-03
            3178             553     17.0770E-03     18.0464E-03
            2552             553     17.0770E-03     18.0464E-03
            3178             554     18.2553E-03     19.2041E-03
            2552             554     18.2553E-03     19.2041E-03
            3179             554     18.2553E-03     19.2041E-03
            2553             554     18.2553E-03     19.2041E-03
            2553             555     19.5132E-03     20.4401E-03
            3180             555     19.5132E-03     20.4401E-03
            2554             555     19.5132E-03     20.4401E-03
            3179             555     19.5132E-03     20.4401E-03
            3181             556     20.8365E-03     21.7410E-03
            2554             556     20.8365E-03     21.7410E-03
            2555             556     20.8365E-03     21.7410E-03
            3180             556     20.8365E-03     21.7410E-03
            3182             557     22.2125E-03     23.0955E-03
            2556             557     22.2125E-03     23.0955E-03
            2555             557     22.2125E-03     23.0955E-03
            3181             557     22.2125E-03     23.0955E-03
            2557             558     23.6330E-03     24.4951E-03
            3182             558     23.6330E-03     24.4951E-03
            2556             558     23.6330E-03     24.4951E-03
            3183             558     23.6330E-03     24.4951E-03
            3184             559     25.0912E-03     25.9341E-03
            3183             559     25.0912E-03     25.9341E-03
            2557             559     25.0912E-03     25.9341E-03
            2558             559     25.0912E-03     25.9341E-03
            2559             560     26.5861E-03     27.4123E-03
            3184             560     26.5861E-03     27.4123E-03
            3185             560     26.5861E-03     27.4123E-03
            2558             560     26.5861E-03     27.4123E-03
            3186             561     28.1380E-03     28.9540E-03
            2559             561     28.1380E-03     28.9540E-03
            2560             561     28.1380E-03     28.9540E-03
            3185             561     28.1380E-03     28.9540E-03
            2560             562     328.773E-06     345.900E-06
            2576             562     328.773E-06     345.900E-06
            2576             563     249.046E-06     247.304E-06
            2592             563     249.046E-06     247.304E-06
            2608             564     164.918E-06     167.155E-06
            2592             564     164.918E-06     167.155E-06
            2624             565     89.7259E-06     84.0537E-06
            2608             565     89.7259E-06     84.0537E-06
            2640             566     44.7854E-06     76.6045E-06
            2624             566     44.7854E-06     76.6045E-06
            2640             567     88.0426E-06     98.3803E-06
            2639             567     88.0426E-06     98.3803E-06
            2639             568     144.263E-06     115.496E-06
            2638             568     144.263E-06     115.496E-06
            2638             569     177.137E-06     152.558E-06
            2637             569     177.137E-06     152.558E-06
            2636             570     196.201E-06     172.772E-06
            2637             570     196.201E-06     172.772E-06
            2635             571     201.941E-06     180.834E-06
            2636             571     201.941E-06     180.834E-06
            2635             572     203.642E-06     183.081E-06
            2634             572     203.642E-06     183.081E-06
            2634             573     201.333E-06     182.410E-06
            2633             573     201.333E-06     182.410E-06
            2632             574     198.759E-06     181.086E-06
            2633             574     198.759E-06     181.086E-06
            2632             575     195.216E-06     179.044E-06
            2631             575     195.216E-06     179.044E-06
            2631             576     191.854E-06     177.574E-06
            2630             576     191.854E-06     177.574E-06
            2629             577     188.535E-06     175.914E-06
            2630             577     188.535E-06     175.914E-06
            2629             578     185.171E-06     175.151E-06
            2628             578     185.171E-06     175.151E-06
            2628             579     181.685E-06     174.465E-06
            2627             579     181.685E-06     174.465E-06
            2627             580     177.739E-06     176.167E-06
            2626             580     177.739E-06     176.167E-06
            2625             581     164.899E-06     184.806E-06
            2626             581     164.899E-06     184.806E-06
            2609             582     167.393E-06     182.911E-06
            2625             582     167.393E-06     182.911E-06
            2593             583     176.519E-06     161.637E-06
            2609             583     176.519E-06     161.637E-06
            2593             584     169.692E-06     147.647E-06
            2577             584     169.692E-06     147.647E-06
            2577             585     164.378E-06     148.161E-06
            2561             585     164.378E-06     148.161E-06
            2545             586     144.997E-06     155.068E-06
            2561             586     144.997E-06     155.068E-06
               1             635     50.3001E-03     55.9907E-03
              17             635     50.3001E-03     55.9907E-03
              18             635     50.3001E-03     55.9907E-03
               2             635     50.3001E-03     55.9907E-03
              19             636     54.9763E-03     54.2259E-03
               2             636     54.9763E-03     54.2259E-03
              18             636     54.9763E-03     54.2259E-03
               3             636     54.9763E-03     54.2259E-03
               3             637     57.8902E-03     54.8502E-03
               4             637     57.8902E-03     54.8502E-03
              20             637     57.8902E-03     54.8502E-03
              19             637     57.8902E-03     54.8502E-03
               4             638     61.0688E-03     56.8891E-03
              21             638     61.0688E-03     56.8891E-03
              20             638     61.0688E-03     56.8891E-03
               5             638     61.0688E-03     56.8891E-03
              22             639     64.5276E-03     59.2999E-03
               5             639     64.5276E-03     59.2999E-03
               6             639     64.5276E-03     59.2999E-03
              21             639     64.5276E-03     59.2999E-03
              22             640     68.3072E-03     62.2381E-03
              23             640     68.3072E-03     62.2381E-03
               7             640     68.3072E-03     62.2381E-03
               6             640     68.3072E-03     62.2381E-03
               8             641     72.2346E-03     65.4483E-03
              24             641     72.2346E-03     65.4483E-03
              23             641     72.2346E-03     65.4483E-03
               7             641     72.2346E-03     65.4483E-03
              25             642     76.2092E-03     68.7247E-03
              24             642     76.2092E-03     68.7247E-03
               9             642     76.2092E-03     68.7247E-03
               8             642     76.2092E-03     68.7247E-03
              25             643     79.9518E-03     71.8553E-03
              10             643     79.9518E-03     71.8553E-03
              26             643     79.9518E-03     71.8553E-03
               9             643     79.9518E-03     71.8553E-03
              11             644     83.1829E-03     74.4338E-03
              27             644     83.1829E-03     74.4338E-03
              26             644     83.1829E-03     74.4338E-03
              10             644     83.1829E-03     74.4338E-03
              28             645     85.0114E-03     75.5581E-03
              27             645     85.0114E-03     75.5581E-03
              11             645     85.0114E-03     75.5581E-03
              12             645     85.0114E-03     75.5581E-03
              28             646     85.0266E-03     74.5856E-03
              29             646     85.0266E-03     74.5856E-03
              12             646     85.0266E-03     74.5856E-03
              13             646     85.0266E-03     74.5856E-03
              30             647     80.4154E-03     68.7099E-03
              13             647     80.4154E-03     68.7099E-03
              14             647     80.4154E-03     68.7099E-03
              29             647     80.4154E-03     68.7099E-03
              14             648     70.6345E-03     56.9682E-03
              30             648     70.6345E-03     56.9682E-03
              15             648     70.6345E-03     56.9682E-03
              31             648     70.6345E-03     56.9682E-03
              31             649     55.6582E-03     52.8343E-03
              16             649     55.6582E-03     52.8343E-03
              15             649     55.6582E-03     52.8343E-03
              32             649     55.6582E-03     52.8343E-03
              34             650     93.8637E-03     101.807E-03
              17             650     93.8637E-03     101.807E-03
              33             650     93.8637E-03     101.807E-03
              18             650     93.8637E-03     101.807E-03
              35             651     98.7037E-03     99.0006E-03
              19             651     98.7037E-03     99.0006E-03
              34             651     98.7037E-03     99.0006E-03
              18             651     98.7037E-03     99.0006E-03
              36             652     104.552E-03     99.5632E-03
              19             652     104.552E-03     99.5632E-03
              20             652     104.552E-03     99.5632E-03
              35             652     104.552E-03     99.5632E-03
              20             653     110.362E-03     102.822E-03
              21             653     110.362E-03     102.822E-03
              36             653     110.362E-03     102.822E-03
              37             653     110.362E-03     102.822E-03
              37             654     116.624E-03     107.334E-03
              21             654     116.624E-03     107.334E-03
              38             654     116.624E-03     107.334E-03
              22             654     116.624E-03     107.334E-03
              23             655     123.480E-03     112.834E-03
              39             655     123.480E-03     112.834E-03
              22             655     123.480E-03     112.834E-03
              38             655     123.480E-03     112.834E-03
              40             656     130.725E-03     118.941E-03
              24             656     130.725E-03     118.941E-03
              23             656     130.725E-03     118.941E-03
              39             656     130.725E-03     118.941E-03
              41             657     138.266E-03     125.420E-03
              25             657     138.266E-03     125.420E-03
              24             657     138.266E-03     125.420E-03
              40             657     138.266E-03     125.420E-03
              25             658     145.647E-03     131.903E-03
              42             658     145.647E-03     131.903E-03
              41             658     145.647E-03     131.903E-03
              26             658     145.647E-03     131.903E-03
              26             659     152.440E-03     137.648E-03
              42             659     152.440E-03     137.648E-03
              43             659     152.440E-03     137.648E-03
              27             659     152.440E-03     137.648E-03
              27             660     157.381E-03     141.662E-03
              28             660     157.381E-03     141.662E-03
              44             660     157.381E-03     141.662E-03
              43             660     157.381E-03     141.662E-03
              29             661     158.156E-03     141.315E-03
              45             661     158.156E-03     141.315E-03
              28             661     158.156E-03     141.315E-03
              44             661     158.156E-03     141.315E-03
              46             662     151.543E-03     133.171E-03
              30             662     151.543E-03     133.171E-03
              45             662     151.543E-03     133.171E-03
              29             662     151.543E-03     133.171E-03
              31             663     127.577E-03     109.423E-03
              47             663     127.577E-03     109.423E-03
              46             663     127.577E-03     109.423E-03
              30             663     127.577E-03     109.423E-03
              31             664     100.364E-03     96.2841E-03
              48             664     100.364E-03     96.2841E-03
              47             664     100.364E-03     96.2841E-03
              32             664     100.364E-03     96.2841E-03
              49             665     92.1263E-03     90.0102E-03
              34             665     92.1263E-03     90.0102E-03
              33             665     92.1263E-03     90.0102E-03
              50             665     92.1263E-03     90.0102E-03
              51             666     92.2110E-03     93.1042E-03
              50             666     92.2110E-03     93.1042E-03
              35             666     92.2110E-03     93.1042E-03
              34             666     92.2110E-03     93.1042E-03
              52             667     96.7271E-03     94.8430E-03
              35             667     96.7271E-03     94.8430E-03
              36             667     96.7271E-03     94.8430E-03
              51             667     96.7271E-03     94.8430E-03
              37             668     102.799E-03     98.6825E-03
              53             668     102.799E-03     98.6825E-03
              52             668     102.799E-03     98.6825E-03
              36             668     102.799E-03     98.6825E-03
              38             669     109.360E-03     104.300E-03
              54             669     109.360E-03     104.300E-03
              37             669     109.360E-03     104.300E-03
              53             669     109.360E-03     104.300E-03
              54             670     116.804E-03     110.927E-03
              39             670     116.804E-03     110.927E-03
              38             670     116.804E-03     110.927E-03
              55             670     116.804E-03     110.927E-03
              40             671     124.965E-03     118.517E-03
              39             671     124.965E-03     118.517E-03
              55             671     124.965E-03     118.517E-03
              56             671     124.965E-03     118.517E-03
              56             672     133.736E-03     126.809E-03
              40             672     133.736E-03     126.809E-03
              57             672     133.736E-03     126.809E-03
              41             672     133.736E-03     126.809E-03
              42             673     143.055E-03     135.690E-03
              57             673     143.055E-03     135.690E-03
              58             673     143.055E-03     135.690E-03
              41             673     143.055E-03     135.690E-03
              42             674     152.369E-03     144.659E-03
              43             674     152.369E-03     144.659E-03
              58             674     152.369E-03     144.659E-03
              59             674     152.369E-03     144.659E-03
              59             675     161.209E-03     153.118E-03
              43             675     161.209E-03     153.118E-03
              60             675     161.209E-03     153.118E-03
              44             675     161.209E-03     153.118E-03
              45             676     166.470E-03     158.595E-03
              60             676     166.470E-03     158.595E-03
              61             676     166.470E-03     158.595E-03
              44             676     166.470E-03     158.595E-03
              45             677     163.968E-03     157.239E-03
              46             677     163.968E-03     157.239E-03
              62             677     163.968E-03     157.239E-03
              61             677     163.968E-03     157.239E-03
              46             678     142.494E-03     139.602E-03
              47             678     142.494E-03     139.602E-03
              63             678     142.494E-03     139.602E-03
              62             678     142.494E-03     139.602E-03
              47             679     131.656E-03     130.201E-03
              48             679     131.656E-03     130.201E-03
              63             679     131.656E-03     130.201E-03
              64             679     131.656E-03     130.201E-03
              66             680     86.6387E-03     79.1825E-03
              49             680     86.6387E-03     79.1825E-03
              65             680     86.6387E-03     79.1825E-03
              50             680     86.6387E-03     79.1825E-03
              67             681     87.5132E-03     84.4424E-03
              66             681     87.5132E-03     84.4424E-03
              51             681     87.5132E-03     84.4424E-03
              50             681     87.5132E-03     84.4424E-03
              68             682     90.1027E-03     89.7925E-03
              52             682     90.1027E-03     89.7925E-03
              67             682     90.1027E-03     89.7925E-03
              51             682     90.1027E-03     89.7925E-03
              52             683     95.3169E-03     95.2008E-03
              68             683     95.3169E-03     95.2008E-03
              53             683     95.3169E-03     95.2008E-03
              69             683     95.3169E-03     95.2008E-03
              54             684     102.178E-03     101.793E-03
              69             684     102.178E-03     101.793E-03
              53             684     102.178E-03     101.793E-03
              70             684     102.178E-03     101.793E-03
              71             685     110.058E-03     109.542E-03
              54             685     110.058E-03     109.542E-03
              70             685     110.058E-03     109.542E-03
              55             685     110.058E-03     109.542E-03
              55             686     118.881E-03     118.282E-03
              72             686     118.881E-03     118.282E-03
              56             686     118.881E-03     118.282E-03
              71             686     118.881E-03     118.282E-03
              57             687     128.528E-03     127.916E-03
              56             687     128.528E-03     127.916E-03
              72             687     128.528E-03     127.916E-03
              73             687     128.528E-03     127.916E-03
              74             688     138.883E-03     138.272E-03
              58             688     138.883E-03     138.272E-03
              57             688     138.883E-03     138.272E-03
              73             688     138.883E-03     138.272E-03
              74             689     149.874E-03     149.330E-03
              75             689     149.874E-03     149.330E-03
              59             689     149.874E-03     149.330E-03
              58             689     149.874E-03     149.330E-03
              76             690     160.370E-03     160.140E-03
              75             690     160.370E-03     160.140E-03
              60             690     160.370E-03     160.140E-03
              59             690     160.370E-03     160.140E-03
              61             691     169.934E-03     169.998E-03
              76             691     169.934E-03     169.998E-03
              77             691     169.934E-03     169.998E-03
              60             691     169.934E-03     169.998E-03
              78             692     171.795E-03     174.281E-03
              62             692     171.795E-03     174.281E-03
              61             692     171.795E-03     174.281E-03
              77             692     171.795E-03     174.281E-03
              62             693     164.722E-03     169.827E-03
              78             693     164.722E-03     169.827E-03
              63             693     164.722E-03     169.827E-03
              79             693     164.722E-03     169.827E-03
              63             694     176.152E-03     176.477E-03
              80             694     176.152E-03     176.477E-03
              64             694     176.152E-03     176.477E-03
              79             694     176.152E-03     176.477E-03
              65             695     79.8377E-03     72.4331E-03
              82             695     79.8377E-03     72.4331E-03
              81             695     79.8377E-03     72.4331E-03
              66             695     79.8377E-03     72.4331E-03
              82             696     80.6785E-03     77.8333E-03
              66             696     80.6785E-03     77.8333E-03
              67             696     80.6785E-03     77.8333E-03
              83             696     80.6785E-03     77.8333E-03
              67             697     83.0029E-03     84.9910E-03
              84             697     83.0029E-03     84.9910E-03
              68             697     83.0029E-03     84.9910E-03
              83             697     83.0029E-03     84.9910E-03
              84             698     87.8217E-03     91.9584E-03
              85             698     87.8217E-03     91.9584E-03
              68             698     87.8217E-03     91.9584E-03
              69             698     87.8217E-03     91.9584E-03
              85             699     94.7622E-03     99.5175E-03
              70             699     94.7622E-03     99.5175E-03
              86             699     94.7622E-03     99.5175E-03
              69             699     94.7622E-03     99.5175E-03
              87             700     102.919E-03     108.188E-03
              86             700     102.919E-03     108.188E-03
              71             700     102.919E-03     108.188E-03
              70             700     102.919E-03     108.188E-03
              72             701     112.030E-03     117.675E-03
              71             701     112.030E-03     117.675E-03
              87             701     112.030E-03     117.675E-03
              88             701     112.030E-03     117.675E-03
              88             702     121.995E-03     127.948E-03
              89             702     121.995E-03     127.948E-03
              73             702     121.995E-03     127.948E-03
              72             702     121.995E-03     127.948E-03
              73             703     132.635E-03     138.916E-03
              89             703     132.635E-03     138.916E-03
              90             703     132.635E-03     138.916E-03
              74             703     132.635E-03     138.916E-03
              90             704     143.843E-03     150.435E-03
              91             704     143.843E-03     150.435E-03
              74             704     143.843E-03     150.435E-03
              75             704     143.843E-03     150.435E-03
              75             705     155.438E-03     162.537E-03
              92             705     155.438E-03     162.537E-03
              76             705     155.438E-03     162.537E-03
              91             705     155.438E-03     162.537E-03
              92             706     166.453E-03     174.279E-03
              76             706     166.453E-03     174.279E-03
              93             706     166.453E-03     174.279E-03
              77             706     166.453E-03     174.279E-03
              77             707     178.337E-03     186.146E-03
              93             707     178.337E-03     186.146E-03
              78             707     178.337E-03     186.146E-03
              94             707     178.337E-03     186.146E-03
              78             708     193.095E-03     198.991E-03
              94             708     193.095E-03     198.991E-03
              95             708     193.095E-03     198.991E-03
              79             708     193.095E-03     198.991E-03
              80             709     220.092E-03     225.620E-03
              96             709     220.092E-03     225.620E-03
              95             709     220.092E-03     225.620E-03
              79             709     220.092E-03     225.620E-03
              97             710     71.7599E-03     67.7831E-03
              98             710     71.7599E-03     67.7831E-03
              81             710     71.7599E-03     67.7831E-03
              82             710     71.7599E-03     67.7831E-03
              82             711     71.3906E-03     74.5473E-03
              98             711     71.3906E-03     74.5473E-03
              99             711     71.3906E-03     74.5473E-03
              83             711     71.3906E-03     74.5473E-03
              84             712     74.5049E-03     81.1255E-03
              99             712     74.5049E-03     81.1255E-03
              83             712     74.5049E-03     81.1255E-03
             100             712     74.5049E-03     81.1255E-03
             100             713     80.0136E-03     88.7691E-03
              85             713     80.0136E-03     88.7691E-03
             101             713     80.0136E-03     88.7691E-03
              84             713     80.0136E-03     88.7691E-03
              86             714     86.9334E-03     97.4053E-03
              85             714     86.9334E-03     97.4053E-03
             101             714     86.9334E-03     97.4053E-03
             102             714     86.9334E-03     97.4053E-03
              86             715     95.1865E-03     106.667E-03
             102             715     95.1865E-03     106.667E-03
             103             715     95.1865E-03     106.667E-03
              87             715     95.1865E-03     106.667E-03
             103             716     104.385E-03     116.637E-03
             104             716     104.385E-03     116.637E-03
              87             716     104.385E-03     116.637E-03
              88             716     104.385E-03     116.637E-03
             104             717     114.234E-03     127.047E-03
              89             717     114.234E-03     127.047E-03
              88             717     114.234E-03     127.047E-03
             105             717     114.234E-03     127.047E-03
              89             718     124.665E-03     137.941E-03
             106             718     124.665E-03     137.941E-03
             105             718     124.665E-03     137.941E-03
              90             718     124.665E-03     137.941E-03
              91             719     135.441E-03     149.194E-03
             107             719     135.441E-03     149.194E-03
              90             719     135.441E-03     149.194E-03
             106             719     135.441E-03     149.194E-03
             108             720     147.015E-03     161.203E-03
             107             720     147.015E-03     161.203E-03
              91             720     147.015E-03     161.203E-03
              92             720     147.015E-03     161.203E-03
             108             721     159.577E-03     174.462E-03
              93             721     159.577E-03     174.462E-03
             109             721     159.577E-03     174.462E-03
              92             721     159.577E-03     174.462E-03
              94             722     177.165E-03     191.422E-03
              93             722     177.165E-03     191.422E-03
             109             722     177.165E-03     191.422E-03
             110             722     177.165E-03     191.422E-03
             111             723     212.136E-03     221.862E-03
              94             723     212.136E-03     221.862E-03
              95             723     212.136E-03     221.862E-03
             110             723     212.136E-03     221.862E-03
              96             724     267.139E-03     268.640E-03
             112             724     267.139E-03     268.640E-03
             111             724     267.139E-03     268.640E-03
              95             724     267.139E-03     268.640E-03
             114             725     59.6387E-03     66.4052E-03
              98             725     59.6387E-03     66.4052E-03
              97             725     59.6387E-03     66.4052E-03
             113             725     59.6387E-03     66.4052E-03
              98             726     61.5733E-03     70.9929E-03
              99             726     61.5733E-03     70.9929E-03
             114             726     61.5733E-03     70.9929E-03
             115             726     61.5733E-03     70.9929E-03
             116             727     65.7906E-03     77.6514E-03
             115             727     65.7906E-03     77.6514E-03
             100             727     65.7906E-03     77.6514E-03
              99             727     65.7906E-03     77.6514E-03
             100             728     71.5022E-03     86.0534E-03
             116             728     71.5022E-03     86.0534E-03
             117             728     71.5022E-03     86.0534E-03
             101             728     71.5022E-03     86.0534E-03
             117             729     78.5982E-03     95.3432E-03
             101             729     78.5982E-03     95.3432E-03
             102             729     78.5982E-03     95.3432E-03
             118             729     78.5982E-03     95.3432E-03
             102             730     86.9091E-03     105.192E-03
             118             730     86.9091E-03     105.192E-03
             119             730     86.9091E-03     105.192E-03
             103             730     86.9091E-03     105.192E-03
             119             731     96.0827E-03     115.377E-03
             120             731     96.0827E-03     115.377E-03
             104             731     96.0827E-03     115.377E-03
             103             731     96.0827E-03     115.377E-03
             121             732     105.828E-03     125.891E-03
             104             732     105.828E-03     125.891E-03
             105             732     105.828E-03     125.891E-03
             120             732     105.828E-03     125.891E-03
             121             733     115.915E-03     136.489E-03
             122             733     115.915E-03     136.489E-03
             105             733     115.915E-03     136.489E-03
             106             733     115.915E-03     136.489E-03
             123             734     126.502E-03     147.513E-03
             122             734     126.502E-03     147.513E-03
             106             734     126.502E-03     147.513E-03
             107             734     126.502E-03     147.513E-03
             124             735     137.631E-03     159.039E-03
             108             735     137.631E-03     159.039E-03
             123             735     137.631E-03     159.039E-03
             107             735     137.631E-03     159.039E-03
             109             736     151.804E-03     173.386E-03
             125             736     151.804E-03     173.386E-03
             124             736     151.804E-03     173.386E-03
             108             736     151.804E-03     173.386E-03
             110             737     171.385E-03     193.406E-03
             109             737     171.385E-03     193.406E-03
             126             737     171.385E-03     193.406E-03
             125             737     171.385E-03     193.406E-03
             111             738     209.459E-03     231.755E-03
             126             738     209.459E-03     231.755E-03
             110             738     209.459E-03     231.755E-03
             127             738     209.459E-03     231.755E-03
             128             739     292.454E-03     311.232E-03
             127             739     292.454E-03     311.232E-03
             112             739     292.454E-03     311.232E-03
             111             739     292.454E-03     311.232E-03
             113             740     85.5862E-03     96.6761E-03
             129             740     85.5862E-03     96.6761E-03
             130             740     85.5862E-03     96.6761E-03
             114             740     85.5862E-03     96.6761E-03
             114             741     97.0328E-03     99.8426E-03
             115             741     97.0328E-03     99.8426E-03
             130             741     97.0328E-03     99.8426E-03
             131             741     97.0328E-03     99.8426E-03
             131             742     107.642E-03     109.303E-03
             116             742     107.642E-03     109.303E-03
             115             742     107.642E-03     109.303E-03
             132             742     107.642E-03     109.303E-03
             117             743     120.365E-03     122.688E-03
             133             743     120.365E-03     122.688E-03
             132             743     120.365E-03     122.688E-03
             116             743     120.365E-03     122.688E-03
             133             744     134.779E-03     137.350E-03
             117             744     134.779E-03     137.350E-03
             134             744     134.779E-03     137.350E-03
             118             744     134.779E-03     137.350E-03
             134             745     150.517E-03     153.461E-03
             118             745     150.517E-03     153.461E-03
             135             745     150.517E-03     153.461E-03
             119             745     150.517E-03     153.461E-03
             135             746     167.003E-03     170.047E-03
             119             746     167.003E-03     170.047E-03
             120             746     167.003E-03     170.047E-03
             136             746     167.003E-03     170.047E-03
             136             747     184.010E-03     187.185E-03
             120             747     184.010E-03     187.185E-03
             121             747     184.010E-03     187.185E-03
             137             747     184.010E-03     187.185E-03
             122             748     201.095E-03     204.212E-03
             121             748     201.095E-03     204.212E-03
             137             748     201.095E-03     204.212E-03
             138             748     201.095E-03     204.212E-03
             139             749     218.175E-03     221.169E-03
             123             749     218.175E-03     221.169E-03
             122             749     218.175E-03     221.169E-03
             138             749     218.175E-03     221.169E-03
             140             750     234.951E-03     237.595E-03
             123             750     234.951E-03     237.595E-03
             124             750     234.951E-03     237.595E-03
             139             750     234.951E-03     237.595E-03
             140             751     251.301E-03     253.374E-03
             124             751     251.301E-03     253.374E-03
             141             751     251.301E-03     253.374E-03
             125             751     251.301E-03     253.374E-03
             142             752     268.174E-03     269.089E-03
             125             752     268.174E-03     269.089E-03
             141             752     268.174E-03     269.089E-03
             126             752     268.174E-03     269.089E-03
             143             753     285.259E-03     286.339E-03
             126             753     285.259E-03     286.339E-03
             142             753     285.259E-03     286.339E-03
             127             753     285.259E-03     286.339E-03
             144             754     312.787E-03     319.648E-03
             143             754     312.787E-03     319.648E-03
             128             754     312.787E-03     319.648E-03
             127             754     312.787E-03     319.648E-03
             146             755     112.768E-03     121.562E-03
             130             755     112.768E-03     121.562E-03
             129             755     112.768E-03     121.562E-03
             145             755     112.768E-03     121.562E-03
             131             756     126.935E-03     125.234E-03
             146             756     126.935E-03     125.234E-03
             130             756     126.935E-03     125.234E-03
             147             756     126.935E-03     125.234E-03
             132             757     145.408E-03     137.877E-03
             131             757     145.408E-03     137.877E-03
             148             757     145.408E-03     137.877E-03
             147             757     145.408E-03     137.877E-03
             133             758     166.111E-03     156.322E-03
             148             758     166.111E-03     156.322E-03
             149             758     166.111E-03     156.322E-03
             132             758     166.111E-03     156.322E-03
             150             759     188.574E-03     177.655E-03
             134             759     188.574E-03     177.655E-03
             133             759     188.574E-03     177.655E-03
             149             759     188.574E-03     177.655E-03
             150             760     212.466E-03     200.787E-03
             151             760     212.466E-03     200.787E-03
             134             760     212.466E-03     200.787E-03
             135             760     212.466E-03     200.787E-03
             136             761     237.254E-03     225.020E-03
             151             761     237.254E-03     225.020E-03
             135             761     237.254E-03     225.020E-03
             152             761     237.254E-03     225.020E-03
             152             762     262.518E-03     249.922E-03
             153             762     262.518E-03     249.922E-03
             136             762     262.518E-03     249.922E-03
             137             762     262.518E-03     249.922E-03
             137             763     288.162E-03     275.089E-03
             154             763     288.162E-03     275.089E-03
             153             763     288.162E-03     275.089E-03
             138             763     288.162E-03     275.089E-03
             139             764     313.510E-03     300.167E-03
             154             764     313.510E-03     300.167E-03
             155             764     313.510E-03     300.167E-03
             138             764     313.510E-03     300.167E-03
             155             765     338.430E-03     324.292E-03
             156             765     338.430E-03     324.292E-03
             139             765     338.430E-03     324.292E-03
             140             765     338.430E-03     324.292E-03
             140             766     360.692E-03     345.969E-03
             141             766     360.692E-03     345.969E-03
             156             766     360.692E-03     345.969E-03
             157             766     360.692E-03     345.969E-03
             141             767     376.704E-03     361.457E-03
             158             767     376.704E-03     361.457E-03
             142             767     376.704E-03     361.457E-03
             157             767     376.704E-03     361.457E-03
             143             768     378.786E-03     363.052E-03
             158             768     378.786E-03     363.052E-03
             159             768     378.786E-03     363.052E-03
             142             768     378.786E-03     363.052E-03
             160             769     354.549E-03     341.436E-03
             143             769     354.549E-03     341.436E-03
             144             769     354.549E-03     341.436E-03
             159             769     354.549E-03     341.436E-03
             145             770     100.571E-03     101.113E-03
             161             770     100.571E-03     101.113E-03
             162             770     100.571E-03     101.113E-03
             146             770     100.571E-03     101.113E-03
             163             771     110.113E-03     113.290E-03
             147             771     110.113E-03     113.290E-03
             146             771     110.113E-03     113.290E-03
             162             771     110.113E-03     113.290E-03
             147             772     129.058E-03     128.547E-03
             148             772     129.058E-03     128.547E-03
             164             772     129.058E-03     128.547E-03
             163             772     129.058E-03     128.547E-03
             149             773     151.376E-03     149.321E-03
             165             773     151.376E-03     149.321E-03
             148             773     151.376E-03     149.321E-03
             164             773     151.376E-03     149.321E-03
             149             774     175.449E-03     173.037E-03
             150             774     175.449E-03     173.037E-03
             166             774     175.449E-03     173.037E-03
             165             774     175.449E-03     173.037E-03
             151             775     200.959E-03     198.343E-03
             166             775     200.959E-03     198.343E-03
             150             775     200.959E-03     198.343E-03
             167             775     200.959E-03     198.343E-03
             151             776     227.352E-03     224.754E-03
             168             776     227.352E-03     224.754E-03
             167             776     227.352E-03     224.754E-03
             152             776     227.352E-03     224.754E-03
             153             777     254.563E-03     251.880E-03
             168             777     254.563E-03     251.880E-03
             169             777     254.563E-03     251.880E-03
             152             777     254.563E-03     251.880E-03
             154             778     282.313E-03     279.657E-03
             170             778     282.313E-03     279.657E-03
             169             778     282.313E-03     279.657E-03
             153             778     282.313E-03     279.657E-03
             154             779     310.744E-03     308.033E-03
             155             779     310.744E-03     308.033E-03
             170             779     310.744E-03     308.033E-03
             171             779     310.744E-03     308.033E-03
             155             780     339.197E-03     336.735E-03
             171             780     339.197E-03     336.735E-03
             156             780     339.197E-03     336.735E-03
             172             780     339.197E-03     336.735E-03
             173             781     367.555E-03     365.270E-03
             157             781     367.555E-03     365.270E-03
             156             781     367.555E-03     365.270E-03
             172             781     367.555E-03     365.270E-03
             174             782     391.787E-03     391.131E-03
             158             782     391.787E-03     391.131E-03
             173             782     391.787E-03     391.131E-03
             157             782     391.787E-03     391.131E-03
             159             783     400.423E-03     405.171E-03
             174             783     400.423E-03     405.171E-03
             175             783     400.423E-03     405.171E-03
             158             783     400.423E-03     405.171E-03
             176             784     403.842E-03     408.861E-03
             175             784     403.842E-03     408.861E-03
             160             784     403.842E-03     408.861E-03
             159             784     403.842E-03     408.861E-03
             178             785     85.0153E-03     80.4224E-03
             162             785     85.0153E-03     80.4224E-03
             177             785     85.0153E-03     80.4224E-03
             161             785     85.0153E-03     80.4224E-03
             178             786     95.8319E-03     99.4157E-03
             162             786     95.8319E-03     99.4157E-03
             179             786     95.8319E-03     99.4157E-03
             163             786     95.8319E-03     99.4157E-03
             179             787     113.815E-03     120.873E-03
             180             787     113.815E-03     120.873E-03
             163             787     113.815E-03     120.873E-03
             164             787     113.815E-03     120.873E-03
             181             788     137.247E-03     144.277E-03
             164             788     137.247E-03     144.277E-03
             180             788     137.247E-03     144.277E-03
             165             788     137.247E-03     144.277E-03
             166             789     162.881E-03     170.033E-03
             182             789     162.881E-03     170.033E-03
             165             789     162.881E-03     170.033E-03
             181             789     162.881E-03     170.033E-03
             182             790     189.654E-03     197.107E-03
             167             790     189.654E-03     197.107E-03
             166             790     189.654E-03     197.107E-03
             183             790     189.654E-03     197.107E-03
             167             791     217.371E-03     224.990E-03
             184             791     217.371E-03     224.990E-03
             168             791     217.371E-03     224.990E-03
             183             791     217.371E-03     224.990E-03
             184             792     245.745E-03     253.535E-03
             185             792     245.745E-03     253.535E-03
             168             792     245.745E-03     253.535E-03
             169             792     245.745E-03     253.535E-03
             169             793     274.723E-03     282.683E-03
             170             793     274.723E-03     282.683E-03
             185             793     274.723E-03     282.683E-03
             186             793     274.723E-03     282.683E-03
             170             794     304.302E-03     312.489E-03
             171             794     304.302E-03     312.489E-03
             186             794     304.302E-03     312.489E-03
             187             794     304.302E-03     312.489E-03
             172             795     334.458E-03     343.275E-03
             187             795     334.458E-03     343.275E-03
             188             795     334.458E-03     343.275E-03
             171             795     334.458E-03     343.275E-03
             189             796     364.902E-03     374.758E-03
             188             796     364.902E-03     374.758E-03
             173             796     364.902E-03     374.758E-03
             172             796     364.902E-03     374.758E-03
             190             797     396.583E-03     407.509E-03
             173             797     396.583E-03     407.509E-03
             189             797     396.583E-03     407.509E-03
             174             797     396.583E-03     407.509E-03
             175             798     425.810E-03     437.652E-03
             190             798     425.810E-03     437.652E-03
             174             798     425.810E-03     437.652E-03
             191             798     425.810E-03     437.652E-03
             176             799     454.752E-03     466.598E-03
             175             799     454.752E-03     466.598E-03
             192             799     454.752E-03     466.598E-03
             191             799     454.752E-03     466.598E-03
             193             800     67.2166E-03     66.9783E-03
             194             800     67.2166E-03     66.9783E-03
             177             800     67.2166E-03     66.9783E-03
             178             800     67.2166E-03     66.9783E-03
             179             801     79.1513E-03     88.9111E-03
             194             801     79.1513E-03     88.9111E-03
             195             801     79.1513E-03     88.9111E-03
             178             801     79.1513E-03     88.9111E-03
             196             802     99.2339E-03     114.606E-03
             195             802     99.2339E-03     114.606E-03
             179             802     99.2339E-03     114.606E-03
             180             802     99.2339E-03     114.606E-03
             180             803     123.802E-03     140.922E-03
             197             803     123.802E-03     140.922E-03
             181             803     123.802E-03     140.922E-03
             196             803     123.802E-03     140.922E-03
             197             804     150.530E-03     168.337E-03
             198             804     150.530E-03     168.337E-03
             181             804     150.530E-03     168.337E-03
             182             804     150.530E-03     168.337E-03
             198             805     178.336E-03     196.529E-03
             182             805     178.336E-03     196.529E-03
             183             805     178.336E-03     196.529E-03
             199             805     178.336E-03     196.529E-03
             199             806     206.776E-03     225.217E-03
             183             806     206.776E-03     225.217E-03
             200             806     206.776E-03     225.217E-03
             184             806     206.776E-03     225.217E-03
             200             807     235.618E-03     254.229E-03
             184             807     235.618E-03     254.229E-03
             201             807     235.618E-03     254.229E-03
             185             807     235.618E-03     254.229E-03
             201             808     264.869E-03     283.559E-03
             202             808     264.869E-03     283.559E-03
             185             808     264.869E-03     283.559E-03
             186             808     264.869E-03     283.559E-03
             203             809     294.251E-03     313.233E-03
             186             809     294.251E-03     313.233E-03
             202             809     294.251E-03     313.233E-03
             187             809     294.251E-03     313.233E-03
             203             810     324.321E-03     343.572E-03
             204             810     324.321E-03     343.572E-03
             188             810     324.321E-03     343.572E-03
             187             810     324.321E-03     343.572E-03
             188             811     355.198E-03     375.474E-03
             205             811     355.198E-03     375.474E-03
             204             811     355.198E-03     375.474E-03
             189             811     355.198E-03     375.474E-03
             205             812     389.427E-03     410.316E-03
             206             812     389.427E-03     410.316E-03
             190             812     389.427E-03     410.316E-03
             189             812     389.427E-03     410.316E-03
             191             813     440.823E-03     457.150E-03
             206             813     440.823E-03     457.150E-03
             207             813     440.823E-03     457.150E-03
             190             813     440.823E-03     457.150E-03
             191             814     503.744E-03     510.032E-03
             207             814     503.744E-03     510.032E-03
             208             814     503.744E-03     510.032E-03
             192             814     503.744E-03     510.032E-03
             193             815     46.5429E-03     57.5872E-03
             210             815     46.5429E-03     57.5872E-03
             194             815     46.5429E-03     57.5872E-03
             209             815     46.5429E-03     57.5872E-03
             194             816     61.5303E-03     83.5146E-03
             195             816     61.5303E-03     83.5146E-03
             210             816     61.5303E-03     83.5146E-03
             211             816     61.5303E-03     83.5146E-03
             212             817     84.8053E-03     110.879E-03
             195             817     84.8053E-03     110.879E-03
             196             817     84.8053E-03     110.879E-03
             211             817     84.8053E-03     110.879E-03
             197             818     110.896E-03     139.394E-03
             212             818     110.896E-03     139.394E-03
             213             818     110.896E-03     139.394E-03
             196             818     110.896E-03     139.394E-03
             198             819     138.575E-03     167.869E-03
             197             819     138.575E-03     167.869E-03
             213             819     138.575E-03     167.869E-03
             214             819     138.575E-03     167.869E-03
             199             820     166.999E-03     196.581E-03
             214             820     166.999E-03     196.581E-03
             198             820     166.999E-03     196.581E-03
             215             820     166.999E-03     196.581E-03
             199             821     195.660E-03     225.367E-03
             200             821     195.660E-03     225.367E-03
             215             821     195.660E-03     225.367E-03
             216             821     195.660E-03     225.367E-03
             216             822     224.500E-03     254.222E-03
             217             822     224.500E-03     254.222E-03
             201             822     224.500E-03     254.222E-03
             200             822     224.500E-03     254.222E-03
             217             823     253.216E-03     282.927E-03
             202             823     253.216E-03     282.927E-03
             201             823     253.216E-03     282.927E-03
             218             823     253.216E-03     282.927E-03
             202             824     282.117E-03     311.677E-03
             219             824     282.117E-03     311.677E-03
             218             824     282.117E-03     311.677E-03
             203             824     282.117E-03     311.677E-03
             220             825     311.064E-03     340.463E-03
             204             825     311.064E-03     340.463E-03
             219             825     311.064E-03     340.463E-03
             203             825     311.064E-03     340.463E-03
             220             826     342.103E-03     370.994E-03
             221             826     342.103E-03     370.994E-03
             205             826     342.103E-03     370.994E-03
             204             826     342.103E-03     370.994E-03
             221             827     377.364E-03     405.693E-03
             206             827     377.364E-03     405.693E-03
             222             827     377.364E-03     405.693E-03
             205             827     377.364E-03     405.693E-03
             222             828     429.622E-03     457.178E-03
             223             828     429.622E-03     457.178E-03
             206             828     429.622E-03     457.178E-03
             207             828     429.622E-03     457.178E-03
             223             829     524.602E-03     545.918E-03
             224             829     524.602E-03     545.918E-03
             208             829     524.602E-03     545.918E-03
             207             829     524.602E-03     545.918E-03
             226             830     97.2389E-03     115.115E-03
             209             830     97.2389E-03     115.115E-03
             225             830     97.2389E-03     115.115E-03
             210             830     97.2389E-03     115.115E-03
             227             831     120.687E-03     132.719E-03
             210             831     120.687E-03     132.719E-03
             226             831     120.687E-03     132.719E-03
             211             831     120.687E-03     132.719E-03
             228             832     146.808E-03     159.133E-03
             212             832     146.808E-03     159.133E-03
             211             832     146.808E-03     159.133E-03
             227             832     146.808E-03     159.133E-03
             228             833     176.486E-03     189.338E-03
             229             833     176.486E-03     189.338E-03
             212             833     176.486E-03     189.338E-03
             213             833     176.486E-03     189.338E-03
             229             834     208.414E-03     221.223E-03
             213             834     208.414E-03     221.223E-03
             214             834     208.414E-03     221.223E-03
             230             834     208.414E-03     221.223E-03
             215             835     241.439E-03     254.098E-03
             214             835     241.439E-03     254.098E-03
             230             835     241.439E-03     254.098E-03
             231             835     241.439E-03     254.098E-03
             216             836     275.205E-03     287.525E-03
             231             836     275.205E-03     287.525E-03
             232             836     275.205E-03     287.525E-03
             215             836     275.205E-03     287.525E-03
             232             837     308.961E-03     321.015E-03
             233             837     308.961E-03     321.015E-03
             217             837     308.961E-03     321.015E-03
             216             837     308.961E-03     321.015E-03
             233             838     342.627E-03     354.155E-03
             234             838     342.627E-03     354.155E-03
             217             838     342.627E-03     354.155E-03
             218             838     342.627E-03     354.155E-03
             235             839     375.542E-03     386.536E-03
             234             839     375.542E-03     386.536E-03
             218             839     375.542E-03     386.536E-03
             219             839     375.542E-03     386.536E-03
             220             840     407.708E-03     417.257E-03
             235             840     407.708E-03     417.257E-03
             236             840     407.708E-03     417.257E-03
             219             840     407.708E-03     417.257E-03
             236             841     438.600E-03     446.393E-03
             237             841     438.600E-03     446.393E-03
             220             841     438.600E-03     446.393E-03
             221             841     438.600E-03     446.393E-03
             222             842     469.169E-03     473.982E-03
             237             842     469.169E-03     473.982E-03
             238             842     469.169E-03     473.982E-03
             221             842     469.169E-03     473.982E-03
             222             843     499.525E-03     502.135E-03
             223             843     499.525E-03     502.135E-03
             238             843     499.525E-03     502.135E-03
             239             843     499.525E-03     502.135E-03
             240             844     541.053E-03     550.632E-03
             224             844     541.053E-03     550.632E-03
             223             844     541.053E-03     550.632E-03
             239             844     541.053E-03     550.632E-03
             242             845     149.814E-03     166.207E-03
             241             845     149.814E-03     166.207E-03
             225             845     149.814E-03     166.207E-03
             226             845     149.814E-03     166.207E-03
             227             846     173.668E-03     176.260E-03
             242             846     173.668E-03     176.260E-03
             226             846     173.668E-03     176.260E-03
             243             846     173.668E-03     176.260E-03
             227             847     204.648E-03     200.779E-03
             243             847     204.648E-03     200.779E-03
             244             847     204.648E-03     200.779E-03
             228             847     204.648E-03     200.779E-03
             228             848     239.353E-03     233.639E-03
             229             848     239.353E-03     233.639E-03
             244             848     239.353E-03     233.639E-03
             245             848     239.353E-03     233.639E-03
             230             849     276.705E-03     270.319E-03
             229             849     276.705E-03     270.319E-03
             245             849     276.705E-03     270.319E-03
             246             849     276.705E-03     270.319E-03
             247             850     316.058E-03     309.198E-03
             230             850     316.058E-03     309.198E-03
             231             850     316.058E-03     309.198E-03
             246             850     316.058E-03     309.198E-03
             232             851     356.410E-03     349.273E-03
             248             851     356.410E-03     349.273E-03
             231             851     356.410E-03     349.273E-03
             247             851     356.410E-03     349.273E-03
             249             852     397.442E-03     389.854E-03
             248             852     397.442E-03     389.854E-03
             232             852     397.442E-03     389.854E-03
             233             852     397.442E-03     389.854E-03
             250             853     438.407E-03     430.472E-03
             233             853     438.407E-03     430.472E-03
             249             853     438.407E-03     430.472E-03
             234             853     438.407E-03     430.472E-03
             250             854     479.016E-03     470.215E-03
             235             854     479.016E-03     470.215E-03
             251             854     479.016E-03     470.215E-03
             234             854     479.016E-03     470.215E-03
             235             855     518.000E-03     508.338E-03
             251             855     518.000E-03     508.338E-03
             252             855     518.000E-03     508.338E-03
             236             855     518.000E-03     508.338E-03
             237             856     553.374E-03     542.435E-03
             236             856     553.374E-03     542.435E-03
             252             856     553.374E-03     542.435E-03
             253             856     553.374E-03     542.435E-03
             253             857     582.412E-03     569.786E-03
             237             857     582.412E-03     569.786E-03
             254             857     582.412E-03     569.786E-03
             238             857     582.412E-03     569.786E-03
             238             858     596.965E-03     584.923E-03
             255             858     596.965E-03     584.923E-03
             254             858     596.965E-03     584.923E-03
             239             858     596.965E-03     584.923E-03
             239             859     590.409E-03     577.489E-03
             256             859     590.409E-03     577.489E-03
             240             859     590.409E-03     577.489E-03
             255             859     590.409E-03     577.489E-03
             241             860     129.299E-03     137.464E-03
             242             860     129.299E-03     137.464E-03
             257             860     129.299E-03     137.464E-03
             258             860     129.299E-03     137.464E-03
             258             861     149.117E-03     159.334E-03
             259             861     149.117E-03     159.334E-03
             242             861     149.117E-03     159.334E-03
             243             861     149.117E-03     159.334E-03
             244             862     183.354E-03     187.191E-03
             260             862     183.354E-03     187.191E-03
             243             862     183.354E-03     187.191E-03
             259             862     183.354E-03     187.191E-03
             260             863     222.097E-03     223.301E-03
             261             863     222.097E-03     223.301E-03
             244             863     222.097E-03     223.301E-03
             245             863     222.097E-03     223.301E-03
             262             864     262.963E-03     263.422E-03
             245             864     262.963E-03     263.422E-03
             261             864     262.963E-03     263.422E-03
             246             864     262.963E-03     263.422E-03
             246             865     305.403E-03     305.685E-03
             262             865     305.403E-03     305.685E-03
             247             865     305.403E-03     305.685E-03
             263             865     305.403E-03     305.685E-03
             264             866     348.934E-03     349.228E-03
             263             866     348.934E-03     349.228E-03
             248             866     348.934E-03     349.228E-03
             247             866     348.934E-03     349.228E-03
             265             867     393.252E-03     393.612E-03
             264             867     393.252E-03     393.612E-03
             249             867     393.252E-03     393.612E-03
             248             867     393.252E-03     393.612E-03
             249             868     438.282E-03     438.610E-03
             266             868     438.282E-03     438.610E-03
             265             868     438.282E-03     438.610E-03
             250             868     438.282E-03     438.610E-03
             251             869     483.430E-03     484.008E-03
             250             869     483.430E-03     484.008E-03
             266             869     483.430E-03     484.008E-03
             267             869     483.430E-03     484.008E-03
             268             870     528.572E-03     529.291E-03
             267             870     528.572E-03     529.291E-03
             251             870     528.572E-03     529.291E-03
             252             870     528.572E-03     529.291E-03
             269             871     571.391E-03     573.259E-03
             253             871     571.391E-03     573.259E-03
             268             871     571.391E-03     573.259E-03
             252             871     571.391E-03     573.259E-03
             253             872     607.840E-03     612.498E-03
             254             872     607.840E-03     612.498E-03
             270             872     607.840E-03     612.498E-03
             269             872     607.840E-03     612.498E-03
             271             873     631.331E-03     639.352E-03
             255             873     631.331E-03     639.352E-03
             270             873     631.331E-03     639.352E-03
             254             873     631.331E-03     639.352E-03
             271             874     645.987E-03     655.163E-03
             255             874     645.987E-03     655.163E-03
             272             874     645.987E-03     655.163E-03
             256             874     645.987E-03     655.163E-03
             273             875     106.067E-03     107.655E-03
             258             875     106.067E-03     107.655E-03
             274             875     106.067E-03     107.655E-03
             257             875     106.067E-03     107.655E-03
             258             876     129.718E-03     139.831E-03
             259             876     129.718E-03     139.831E-03
             275             876     129.718E-03     139.831E-03
             274             876     129.718E-03     139.831E-03
             275             877     165.089E-03     175.920E-03
             260             877     165.089E-03     175.920E-03
             259             877     165.089E-03     175.920E-03
             276             877     165.089E-03     175.920E-03
             276             878     206.819E-03     215.532E-03
             260             878     206.819E-03     215.532E-03
             261             878     206.819E-03     215.532E-03
             277             878     206.819E-03     215.532E-03
             262             879     250.485E-03     258.684E-03
             261             879     250.485E-03     258.684E-03
             278             879     250.485E-03     258.684E-03
             277             879     250.485E-03     258.684E-03
             263             880     295.297E-03     303.463E-03
             279             880     295.297E-03     303.463E-03
             262             880     295.297E-03     303.463E-03
             278             880     295.297E-03     303.463E-03
             263             881     341.053E-03     349.374E-03
             280             881     341.053E-03     349.374E-03
             279             881     341.053E-03     349.374E-03
             264             881     341.053E-03     349.374E-03
             280             882     387.562E-03     396.164E-03
             281             882     387.562E-03     396.164E-03
             264             882     387.562E-03     396.164E-03
             265             882     387.562E-03     396.164E-03
             265             883     434.748E-03     443.769E-03
             282             883     434.748E-03     443.769E-03
             266             883     434.748E-03     443.769E-03
             281             883     434.748E-03     443.769E-03
             266             884     482.727E-03     492.416E-03
             282             884     482.727E-03     492.416E-03
             267             884     482.727E-03     492.416E-03
             283             884     482.727E-03     492.416E-03
             267             885     530.811E-03     541.835E-03
             268             885     530.811E-03     541.835E-03
             283             885     530.811E-03     541.835E-03
             284             885     530.811E-03     541.835E-03
             268             886     579.636E-03     592.239E-03
             285             886     579.636E-03     592.239E-03
             269             886     579.636E-03     592.239E-03
             284             886     579.636E-03     592.239E-03
             286             887     625.238E-03     640.815E-03
             270             887     625.238E-03     640.815E-03
             269             887     625.238E-03     640.815E-03
             285             887     625.238E-03     640.815E-03
             286             888     663.436E-03     682.036E-03
             287             888     663.436E-03     682.036E-03
             271             888     663.436E-03     682.036E-03
             270             888     663.436E-03     682.036E-03
             287             889     702.140E-03     714.746E-03
             288             889     702.140E-03     714.746E-03
             271             889     702.140E-03     714.746E-03
             272             889     702.140E-03     714.746E-03
             289             890     82.2000E-03     87.0354E-03
             290             890     82.2000E-03     87.0354E-03
             273             890     82.2000E-03     87.0354E-03
             274             890     82.2000E-03     87.0354E-03
             291             891     110.638E-03     123.491E-03
             275             891     110.638E-03     123.491E-03
             274             891     110.638E-03     123.491E-03
             290             891     110.638E-03     123.491E-03
             291             892     149.839E-03     165.991E-03
             275             892     149.839E-03     165.991E-03
             292             892     149.839E-03     165.991E-03
             276             892     149.839E-03     165.991E-03
             292             893     193.291E-03     209.873E-03
             277             893     193.291E-03     209.873E-03
             293             893     193.291E-03     209.873E-03
             276             893     193.291E-03     209.873E-03
             293             894     238.741E-03     255.147E-03
             277             894     238.741E-03     255.147E-03
             294             894     238.741E-03     255.147E-03
             278             894     238.741E-03     255.147E-03
             279             895     285.017E-03     301.530E-03
             294             895     285.017E-03     301.530E-03
             278             895     285.017E-03     301.530E-03
             295             895     285.017E-03     301.530E-03
             280             896     331.836E-03     348.561E-03
             279             896     331.836E-03     348.561E-03
             295             896     331.836E-03     348.561E-03
             296             896     331.836E-03     348.561E-03
             281             897     379.214E-03     396.197E-03
             280             897     379.214E-03     396.197E-03
             296             897     379.214E-03     396.197E-03
             297             897     379.214E-03     396.197E-03
             282             898     427.055E-03     444.552E-03
             297             898     427.055E-03     444.552E-03
             281             898     427.055E-03     444.552E-03
             298             898     427.055E-03     444.552E-03
             282             899     475.525E-03     493.726E-03
             283             899     475.525E-03     493.726E-03
             298             899     475.525E-03     493.726E-03
             299             899     475.525E-03     493.726E-03
             283             900     525.046E-03     544.607E-03
             299             900     525.046E-03     544.607E-03
             284             900     525.046E-03     544.607E-03
             300             900     525.046E-03     544.607E-03
             284             901     575.695E-03     597.057E-03
             285             901     575.695E-03     597.057E-03
             301             901     575.695E-03     597.057E-03
             300             901     575.695E-03     597.057E-03
             286             902     632.176E-03     653.566E-03
             302             902     632.176E-03     653.566E-03
             285             902     632.176E-03     653.566E-03
             301             902     632.176E-03     653.566E-03
             287             903     692.489E-03     711.943E-03
             302             903     692.489E-03     711.943E-03
             303             903     692.489E-03     711.943E-03
             286             903     692.489E-03     711.943E-03
             287             904     749.139E-03     767.165E-03
             288             904     749.139E-03     767.165E-03
             304             904     749.139E-03     767.165E-03
             303             904     749.139E-03     767.165E-03
             305             905     59.4414E-03     69.9795E-03
             290             905     59.4414E-03     69.9795E-03
             306             905     59.4414E-03     69.9795E-03
             289             905     59.4414E-03     69.9795E-03
             306             906     93.9476E-03     113.459E-03
             307             906     93.9476E-03     113.459E-03
             290             906     93.9476E-03     113.459E-03
             291             906     93.9476E-03     113.459E-03
             292             907     136.500E-03     159.289E-03
             291             907     136.500E-03     159.289E-03
             308             907     136.500E-03     159.289E-03
             307             907     136.500E-03     159.289E-03
             308             908     181.472E-03     206.124E-03
             309             908     181.472E-03     206.124E-03
             293             908     181.472E-03     206.124E-03
             292             908     181.472E-03     206.124E-03
             294             909     227.693E-03     252.746E-03
             310             909     227.693E-03     252.746E-03
             309             909     227.693E-03     252.746E-03
             293             909     227.693E-03     252.746E-03
             311             910     274.382E-03     299.626E-03
             295             910     274.382E-03     299.626E-03
             294             910     274.382E-03     299.626E-03
             310             910     274.382E-03     299.626E-03
             296             911     321.335E-03     346.702E-03
             312             911     321.335E-03     346.702E-03
             311             911     321.335E-03     346.702E-03
             295             911     321.335E-03     346.702E-03
             296             912     368.402E-03     393.893E-03
             312             912     368.402E-03     393.893E-03
             313             912     368.402E-03     393.893E-03
             297             912     368.402E-03     393.893E-03
             297             913     415.754E-03     441.329E-03
             314             913     415.754E-03     441.329E-03
             298             913     415.754E-03     441.329E-03
             313             913     415.754E-03     441.329E-03
             314             914     463.332E-03     489.338E-03
             298             914     463.332E-03     489.338E-03
             299             914     463.332E-03     489.338E-03
             315             914     463.332E-03     489.338E-03
             299             915     512.175E-03     538.545E-03
             315             915     512.175E-03     538.545E-03
             316             915     512.175E-03     538.545E-03
             300             915     512.175E-03     538.545E-03
             316             916     563.563E-03     590.846E-03
             317             916     563.563E-03     590.846E-03
             301             916     563.563E-03     590.846E-03
             300             916     563.563E-03     590.846E-03
             302             917     621.874E-03     649.100E-03
             301             917     621.874E-03     649.100E-03
             317             917     621.874E-03     649.100E-03
             318             917     621.874E-03     649.100E-03
             302             918     702.654E-03     723.765E-03
             318             918     702.654E-03     723.765E-03
             303             918     702.654E-03     723.765E-03
             319             918     702.654E-03     723.765E-03
             320             919     794.303E-03     804.048E-03
             303             919     794.303E-03     804.048E-03
             319             919     794.303E-03     804.048E-03
             304             919     794.303E-03     804.048E-03
             306             920     41.4022E-03     61.4494E-03
             322             920     41.4022E-03     61.4494E-03
             305             920     41.4022E-03     61.4494E-03
             321             920     41.4022E-03     61.4494E-03
             307             921     81.9579E-03     109.479E-03
             323             921     81.9579E-03     109.479E-03
             322             921     81.9579E-03     109.479E-03
             306             921     81.9579E-03     109.479E-03
             324             922     126.009E-03     157.781E-03
             323             922     126.009E-03     157.781E-03
             307             922     126.009E-03     157.781E-03
             308             922     126.009E-03     157.781E-03
             308             923     171.720E-03     205.026E-03
             325             923     171.720E-03     205.026E-03
             309             923     171.720E-03     205.026E-03
             324             923     171.720E-03     205.026E-03
             310             924     217.757E-03     251.933E-03
             325             924     217.757E-03     251.933E-03
             326             924     217.757E-03     251.933E-03
             309             924     217.757E-03     251.933E-03
             326             925     264.020E-03     298.360E-03
             311             925     264.020E-03     298.360E-03
             310             925     264.020E-03     298.360E-03
             327             925     264.020E-03     298.360E-03
             311             926     310.228E-03     344.498E-03
             327             926     310.228E-03     344.498E-03
             328             926     310.228E-03     344.498E-03
             312             926     310.228E-03     344.498E-03
             312             927     356.310E-03     390.398E-03
             328             927     356.310E-03     390.398E-03
             329             927     356.310E-03     390.398E-03
             313             927     356.310E-03     390.398E-03
             329             928     402.211E-03     435.988E-03
             330             928     402.211E-03     435.988E-03
             313             928     402.211E-03     435.988E-03
             314             928     402.211E-03     435.988E-03
             314             929     448.507E-03     481.702E-03
             330             929     448.507E-03     481.702E-03
             315             929     448.507E-03     481.702E-03
             331             929     448.507E-03     481.702E-03
             316             930     495.474E-03     527.919E-03
             315             930     495.474E-03     527.919E-03
             331             930     495.474E-03     527.919E-03
             332             930     495.474E-03     527.919E-03
             332             931     546.218E-03     577.380E-03
             316             931     546.218E-03     577.380E-03
             333             931     546.218E-03     577.380E-03
             317             931     546.218E-03     577.380E-03
             317             932     603.097E-03     633.078E-03
             333             932     603.097E-03     633.078E-03
             334             932     603.097E-03     633.078E-03
             318             932     603.097E-03     633.078E-03
             318             933     680.577E-03     710.082E-03
             334             933     680.577E-03     710.082E-03
             335             933     680.577E-03     710.082E-03
             319             933     680.577E-03     710.082E-03
             319             934     805.770E-03     828.137E-03
             335             934     805.770E-03     828.137E-03
             320             934     805.770E-03     828.137E-03
             336             934     805.770E-03     828.137E-03
             338             935     114.961E-03     137.488E-03
             337             935     114.961E-03     137.488E-03
             321             935     114.961E-03     137.488E-03
             322             935     114.961E-03     137.488E-03
             338             936     156.440E-03     171.515E-03
             339             936     156.440E-03     171.515E-03
             323             936     156.440E-03     171.515E-03
             322             936     156.440E-03     171.515E-03
             324             937     199.613E-03     215.045E-03
             340             937     199.613E-03     215.045E-03
             339             937     199.613E-03     215.045E-03
             323             937     199.613E-03     215.045E-03
             340             938     246.300E-03     262.791E-03
             324             938     246.300E-03     262.791E-03
             325             938     246.300E-03     262.791E-03
             341             938     246.300E-03     262.791E-03
             325             939     295.392E-03     312.144E-03
             326             939     295.392E-03     312.144E-03
             341             939     295.392E-03     312.144E-03
             342             939     295.392E-03     312.144E-03
             342             940     345.691E-03     362.393E-03
             343             940     345.691E-03     362.393E-03
             326             940     345.691E-03     362.393E-03
             327             940     345.691E-03     362.393E-03
             343             941     396.603E-03     412.986E-03
             328             941     396.603E-03     412.986E-03
             327             941     396.603E-03     412.986E-03
             344             941     396.603E-03     412.986E-03
             329             942     447.430E-03     463.435E-03
             345             942     447.430E-03     463.435E-03
             344             942     447.430E-03     463.435E-03
             328             942     447.430E-03     463.435E-03
             346             943     498.133E-03     513.293E-03
             329             943     498.133E-03     513.293E-03
             330             943     498.133E-03     513.293E-03
             345             943     498.133E-03     513.293E-03
             347             944     548.042E-03     562.263E-03
             330             944     548.042E-03     562.263E-03
             346             944     548.042E-03     562.263E-03
             331             944     548.042E-03     562.263E-03
             332             945     597.688E-03     609.568E-03
             347             945     597.688E-03     609.568E-03
             331             945     597.688E-03     609.568E-03
             348             945     597.688E-03     609.568E-03
             333             946     646.339E-03     655.600E-03
             348             946     646.339E-03     655.600E-03
             332             946     646.339E-03     655.600E-03
             349             946     646.339E-03     655.600E-03
             334             947     696.003E-03     701.173E-03
             350             947     696.003E-03     701.173E-03
             349             947     696.003E-03     701.173E-03
             333             947     696.003E-03     701.173E-03
             351             948     746.255E-03     748.834E-03
             350             948     746.255E-03     748.834E-03
             335             948     746.255E-03     748.834E-03
             334             948     746.255E-03     748.834E-03
             352             949     812.169E-03     825.537E-03
             335             949     812.169E-03     825.537E-03
             351             949     812.169E-03     825.537E-03
             336             949     812.169E-03     825.537E-03
             337             950     180.910E-03     202.878E-03
             353             950     180.910E-03     202.878E-03
             338             950     180.910E-03     202.878E-03
             354             950     180.910E-03     202.878E-03
             339             951     216.707E-03     222.565E-03
             338             951     216.707E-03     222.565E-03
             354             951     216.707E-03     222.565E-03
             355             951     216.707E-03     222.565E-03
             339             952     262.845E-03     262.374E-03
             340             952     262.845E-03     262.374E-03
             356             952     262.845E-03     262.374E-03
             355             952     262.845E-03     262.374E-03
             340             953     314.302E-03     312.555E-03
             357             953     314.302E-03     312.555E-03
             341             953     314.302E-03     312.555E-03
             356             953     314.302E-03     312.555E-03
             341             954     369.115E-03     367.171E-03
             358             954     369.115E-03     367.171E-03
             357             954     369.115E-03     367.171E-03
             342             954     369.115E-03     367.171E-03
             359             955     426.331E-03     424.145E-03
             358             955     426.331E-03     424.145E-03
             342             955     426.331E-03     424.145E-03
             343             955     426.331E-03     424.145E-03
             344             956     484.652E-03     482.342E-03
             343             956     484.652E-03     482.342E-03
             360             956     484.652E-03     482.342E-03
             359             956     484.652E-03     482.342E-03
             360             957     543.693E-03     540.967E-03
             344             957     543.693E-03     540.967E-03
             361             957     543.693E-03     540.967E-03
             345             957     543.693E-03     540.967E-03
             362             958     602.590E-03     599.513E-03
             345             958     602.590E-03     599.513E-03
             346             958     602.590E-03     599.513E-03
             361             958     602.590E-03     599.513E-03
             347             959     661.140E-03     657.011E-03
             363             959     661.140E-03     657.011E-03
             362             959     661.140E-03     657.011E-03
             346             959     661.140E-03     657.011E-03
             347             960     717.970E-03     712.735E-03
             363             960     717.970E-03     712.735E-03
             348             960     717.970E-03     712.735E-03
             364             960     717.970E-03     712.735E-03
             348             961     771.319E-03     764.387E-03
             364             961     771.319E-03     764.387E-03
             349             961     771.319E-03     764.387E-03
             365             961     771.319E-03     764.387E-03
             365             962     818.467E-03     809.352E-03
             349             962     818.467E-03     809.352E-03
             366             962     818.467E-03     809.352E-03
             350             962     818.467E-03     809.352E-03
             350             963     852.367E-03     843.841E-03
             351             963     852.367E-03     843.841E-03
             367             963     852.367E-03     843.841E-03
             366             963     852.367E-03     843.841E-03
             367             964     868.079E-03     856.838E-03
             368             964     868.079E-03     856.838E-03
             352             964     868.079E-03     856.838E-03
             351             964     868.079E-03     856.838E-03
             353             965     150.876E-03     165.795E-03
             369             965     150.876E-03     165.795E-03
             370             965     150.876E-03     165.795E-03
             354             965     150.876E-03     165.795E-03
             370             966     184.043E-03     200.858E-03
             355             966     184.043E-03     200.858E-03
             354             966     184.043E-03     200.858E-03
             371             966     184.043E-03     200.858E-03
             356             967     236.416E-03     245.147E-03
             355             967     236.416E-03     245.147E-03
             371             967     236.416E-03     245.147E-03
             372             967     236.416E-03     245.147E-03
             356             968     293.799E-03     299.802E-03
             373             968     293.799E-03     299.802E-03
             372             968     293.799E-03     299.802E-03
             357             968     293.799E-03     299.802E-03
             373             969     353.558E-03     358.791E-03
             357             969     353.558E-03     358.791E-03
             358             969     353.558E-03     358.791E-03
             374             969     353.558E-03     358.791E-03
             358             970     414.925E-03     420.089E-03
             359             970     414.925E-03     420.089E-03
             375             970     414.925E-03     420.089E-03
             374             970     414.925E-03     420.089E-03
             375             971     477.400E-03     482.673E-03
             359             971     477.400E-03     482.673E-03
             376             971     477.400E-03     482.673E-03
             360             971     477.400E-03     482.673E-03
             361             972     540.673E-03     546.102E-03
             376             972     540.673E-03     546.102E-03
             377             972     540.673E-03     546.102E-03
             360             972     540.673E-03     546.102E-03
             361             973     604.722E-03     610.169E-03
             377             973     604.722E-03     610.169E-03
             362             973     604.722E-03     610.169E-03
             378             973     604.722E-03     610.169E-03
             362             974     668.906E-03     674.774E-03
             363             974     668.906E-03     674.774E-03
             379             974     668.906E-03     674.774E-03
             378             974     668.906E-03     674.774E-03
             379             975     733.314E-03     739.457E-03
             363             975     733.314E-03     739.457E-03
             380             975     733.314E-03     739.457E-03
             364             975     733.314E-03     739.457E-03
             365             976     795.695E-03     803.389E-03
             364             976     795.695E-03     803.389E-03
             380             976     795.695E-03     803.389E-03
             381             976     795.695E-03     803.389E-03
             382             977     852.078E-03     863.166E-03
             365             977     852.078E-03     863.166E-03
             366             977     852.078E-03     863.166E-03
             381             977     852.078E-03     863.166E-03
             383             978     897.760E-03     911.683E-03
             367             978     897.760E-03     911.683E-03
             366             978     897.760E-03     911.683E-03
             382             978     897.760E-03     911.683E-03
             367             979     932.291E-03     945.662E-03
             368             979     932.291E-03     945.662E-03
             383             979     932.291E-03     945.662E-03
             384             979     932.291E-03     945.662E-03
             370             980     119.150E-03     127.431E-03
             369             980     119.150E-03     127.431E-03
             386             980     119.150E-03     127.431E-03
             385             980     119.150E-03     127.431E-03
             387             981     159.149E-03     177.537E-03
             371             981     159.149E-03     177.537E-03
             386             981     159.149E-03     177.537E-03
             370             981     159.149E-03     177.537E-03
             387             982     214.544E-03     232.122E-03
             372             982     214.544E-03     232.122E-03
             371             982     214.544E-03     232.122E-03
             388             982     214.544E-03     232.122E-03
             372             983     276.599E-03     290.757E-03
             388             983     276.599E-03     290.757E-03
             389             983     276.599E-03     290.757E-03
             373             983     276.599E-03     290.757E-03
             389             984     340.060E-03     353.417E-03
             374             984     340.060E-03     353.417E-03
             390             984     340.060E-03     353.417E-03
             373             984     340.060E-03     353.417E-03
             374             985     404.447E-03     417.721E-03
             390             985     404.447E-03     417.721E-03
             391             985     404.447E-03     417.721E-03
             375             985     404.447E-03     417.721E-03
             391             986     469.700E-03     483.170E-03
             392             986     469.700E-03     483.170E-03
             375             986     469.700E-03     483.170E-03
             376             986     469.700E-03     483.170E-03
             392             987     535.699E-03     549.542E-03
             393             987     535.699E-03     549.542E-03
             377             987     535.699E-03     549.542E-03
             376             987     535.699E-03     549.542E-03
             378             988     602.423E-03     616.861E-03
             393             988     602.423E-03     616.861E-03
             394             988     602.423E-03     616.861E-03
             377             988     602.423E-03     616.861E-03
             394             989     670.096E-03     685.476E-03
             378             989     670.096E-03     685.476E-03
             395             989     670.096E-03     685.476E-03
             379             989     670.096E-03     685.476E-03
             395             990     738.126E-03     755.369E-03
             396             990     738.126E-03     755.369E-03
             380             990     738.126E-03     755.369E-03
             379             990     738.126E-03     755.369E-03
             380             991     807.467E-03     826.956E-03
             396             991     807.467E-03     826.956E-03
             381             991     807.467E-03     826.956E-03
             397             991     807.467E-03     826.956E-03
             382             992     874.845E-03     897.757E-03
             381             992     874.845E-03     897.757E-03
             397             992     874.845E-03     897.757E-03
             398             992     874.845E-03     897.757E-03
             383             993     934.564E-03     960.683E-03
             382             993     934.564E-03     960.683E-03
             399             993     934.564E-03     960.683E-03
             398             993     934.564E-03     960.683E-03
             384             994     990.973E-03         1.00996
             400             994     990.973E-03         1.00996
             399             994     990.973E-03         1.00996
             383             994     990.973E-03         1.00996
             401             995     88.2486E-03     102.681E-03
             386             995     88.2486E-03     102.681E-03
             385             995     88.2486E-03     102.681E-03
             402             995     88.2486E-03     102.681E-03
             386             996     137.042E-03     159.459E-03
             403             996     137.042E-03     159.459E-03
             402             996     137.042E-03     159.459E-03
             387             996     137.042E-03     159.459E-03
             388             997     198.165E-03     221.528E-03
             387             997     198.165E-03     221.528E-03
             404             997     198.165E-03     221.528E-03
             403             997     198.165E-03     221.528E-03
             388             998     262.456E-03     284.859E-03
             404             998     262.456E-03     284.859E-03
             405             998     262.456E-03     284.859E-03
             389             998     262.456E-03     284.859E-03
             390             999     327.953E-03     349.774E-03
             406             999     327.953E-03     349.774E-03
             389             999     327.953E-03     349.774E-03
             405             999     327.953E-03     349.774E-03
             406            1000     393.935E-03     415.743E-03
             391            1000     393.935E-03     415.743E-03
             390            1000     393.935E-03     415.743E-03
             407            1000     393.935E-03     415.743E-03
             408            1001     460.319E-03     482.340E-03
             392            1001     460.319E-03     482.340E-03
             407            1001     460.319E-03     482.340E-03
             391            1001     460.319E-03     482.340E-03
             408            1002     527.231E-03     549.573E-03
             392            1002     527.231E-03     549.573E-03
             393            1002     527.231E-03     549.573E-03
             409            1002     527.231E-03     549.573E-03
             394            1003     594.637E-03     617.652E-03
             393            1003     594.637E-03     617.652E-03
             409            1003     594.637E-03     617.652E-03
             410            1003     594.637E-03     617.652E-03
             395            1004     662.820E-03     686.800E-03
             410            1004     662.820E-03     686.800E-03
             411            1004     662.820E-03     686.800E-03
             394            1004     662.820E-03     686.800E-03
             395            1005     732.308E-03     758.166E-03
             412            1005     732.308E-03     758.166E-03
             396            1005     732.308E-03     758.166E-03
             411            1005     732.308E-03     758.166E-03
             397            1006     803.498E-03     831.812E-03
             413            1006     803.498E-03     831.812E-03
             412            1006     803.498E-03     831.812E-03
             396            1006     803.498E-03     831.812E-03
             397            1007     881.819E-03     910.578E-03
             413            1007     881.819E-03     910.578E-03
             414            1007     881.819E-03     910.578E-03
             398            1007     881.819E-03     910.578E-03
             415            1008     963.717E-03     990.696E-03
             398            1008     963.717E-03     990.696E-03
             399            1008     963.717E-03     990.696E-03
             414            1008     963.717E-03     990.696E-03
             399            1009         1.03821         1.06263
             416            1009         1.03821         1.06263
             400            1009         1.03821         1.06263
             415            1009         1.03821         1.06263
             402            1010     62.0293E-03     87.8800E-03
             401            1010     62.0293E-03     87.8800E-03
             417            1010     62.0293E-03     87.8800E-03
             418            1010     62.0293E-03     87.8800E-03
             418            1011     122.081E-03     150.406E-03
             402            1011     122.081E-03     150.406E-03
             403            1011     122.081E-03     150.406E-03
             419            1011     122.081E-03     150.406E-03
             420            1012     186.493E-03     215.483E-03
             419            1012     186.493E-03     215.483E-03
             403            1012     186.493E-03     215.483E-03
             404            1012     186.493E-03     215.483E-03
             404            1013     251.466E-03     281.923E-03
             405            1013     251.466E-03     281.923E-03
             421            1013     251.466E-03     281.923E-03
             420            1013     251.466E-03     281.923E-03
             406            1014     317.249E-03     347.798E-03
             421            1014     317.249E-03     347.798E-03
             422            1014     317.249E-03     347.798E-03
             405            1014     317.249E-03     347.798E-03
             422            1015     383.219E-03     413.891E-03
             423            1015     383.219E-03     413.891E-03
             407            1015     383.219E-03     413.891E-03
             406            1015     383.219E-03     413.891E-03
             408            1016     449.321E-03     480.096E-03
             407            1016     449.321E-03     480.096E-03
             424            1016     449.321E-03     480.096E-03
             423            1016     449.321E-03     480.096E-03
             425            1017     515.468E-03     546.380E-03
             409            1017     515.468E-03     546.380E-03
             408            1017     515.468E-03     546.380E-03
             424            1017     515.468E-03     546.380E-03
             409            1018     581.924E-03     612.915E-03
             410            1018     581.924E-03     612.915E-03
             425            1018     581.924E-03     612.915E-03
             426            1018     581.924E-03     612.915E-03
             411            1019     648.605E-03     680.154E-03
             426            1019     648.605E-03     680.154E-03
             427            1019     648.605E-03     680.154E-03
             410            1019     648.605E-03     680.154E-03
             411            1020     716.775E-03     748.790E-03
             427            1020     716.775E-03     748.790E-03
             428            1020     716.775E-03     748.790E-03
             412            1020     716.775E-03     748.790E-03
             428            1021     787.810E-03     821.100E-03
             429            1021     787.810E-03     821.100E-03
             413            1021     787.810E-03     821.100E-03
             412            1021     787.810E-03     821.100E-03
             413            1022     866.187E-03     899.965E-03
             429            1022     866.187E-03     899.965E-03
             414            1022     866.187E-03     899.965E-03
             430            1022     866.187E-03     899.965E-03
             415            1023     969.329E-03     996.393E-03
             414            1023     969.329E-03     996.393E-03
             430            1023     969.329E-03     996.393E-03
             431            1023     969.329E-03     996.393E-03
             416            1024         1.08139         1.09526
             415            1024         1.08139         1.09526
             432            1024         1.08139         1.09526
             431            1024         1.08139         1.09526
             418            1025     57.0561E-03     86.9120E-03
             433            1025     57.0561E-03     86.9120E-03
             434            1025     57.0561E-03     86.9120E-03
             417            1025     57.0561E-03     86.9120E-03
             419            1026     118.193E-03     150.144E-03
             434            1026     118.193E-03     150.144E-03
             435            1026     118.193E-03     150.144E-03
             418            1026     118.193E-03     150.144E-03
             419            1027     180.228E-03     217.005E-03
             420            1027     180.228E-03     217.005E-03
             435            1027     180.228E-03     217.005E-03
             436            1027     180.228E-03     217.005E-03
             437            1028     244.240E-03     282.840E-03
             420            1028     244.240E-03     282.840E-03
             421            1028     244.240E-03     282.840E-03
             436            1028     244.240E-03     282.840E-03
             437            1029     308.596E-03     348.260E-03
             422            1029     308.596E-03     348.260E-03
             438            1029     308.596E-03     348.260E-03
             421            1029     308.596E-03     348.260E-03
             422            1030     373.212E-03     413.061E-03
             438            1030     373.212E-03     413.061E-03
             423            1030     373.212E-03     413.061E-03
             439            1030     373.212E-03     413.061E-03
             423            1031     437.698E-03     477.471E-03
             440            1031     437.698E-03     477.471E-03
             439            1031     437.698E-03     477.471E-03
             424            1031     437.698E-03     477.471E-03
             425            1032     501.993E-03     541.504E-03
             440            1032     501.993E-03     541.504E-03
             424            1032     501.993E-03     541.504E-03
             441            1032     501.993E-03     541.504E-03
             441            1033     565.974E-03     605.079E-03
             426            1033     565.974E-03     605.079E-03
             425            1033     565.974E-03     605.079E-03
             442            1033     565.974E-03     605.079E-03
             427            1034     630.332E-03     668.597E-03
             426            1034     630.332E-03     668.597E-03
             443            1034     630.332E-03     668.597E-03
             442            1034     630.332E-03     668.597E-03
             428            1035     695.259E-03     732.461E-03
             443            1035     695.259E-03     732.461E-03
             444            1035     695.259E-03     732.461E-03
             427            1035     695.259E-03     732.461E-03
             429            1036     764.111E-03     799.542E-03
             444            1036     764.111E-03     799.542E-03
             445            1036     764.111E-03     799.542E-03
             428            1036     764.111E-03     799.542E-03
             445            1037     839.244E-03     872.930E-03
             446            1037     839.244E-03     872.930E-03
             430            1037     839.244E-03     872.930E-03
             429            1037     839.244E-03     872.930E-03
             430            1038     936.263E-03     969.419E-03
             446            1038     936.263E-03     969.419E-03
             431            1038     936.263E-03     969.419E-03
             447            1038     936.263E-03     969.419E-03
             431            1039         1.08453         1.10879
             448            1039         1.08453         1.10879
             447            1039         1.08453         1.10879
             432            1039         1.08453         1.10879
             434            1040     136.552E-03     159.382E-03
             449            1040     136.552E-03     159.382E-03
             450            1040     136.552E-03     159.382E-03
             433            1040     136.552E-03     159.382E-03
             435            1041     191.033E-03     207.628E-03
             450            1041     191.033E-03     207.628E-03
             451            1041     191.033E-03     207.628E-03
             434            1041     191.033E-03     207.628E-03
             436            1042     250.470E-03     268.789E-03
             451            1042     250.470E-03     268.789E-03
             452            1042     250.470E-03     268.789E-03
             435            1042     250.470E-03     268.789E-03
             436            1043     314.957E-03     334.998E-03
             452            1043     314.957E-03     334.998E-03
             453            1043     314.957E-03     334.998E-03
             437            1043     314.957E-03     334.998E-03
             453            1044     382.283E-03     402.683E-03
             454            1044     382.283E-03     402.683E-03
             437            1044     382.283E-03     402.683E-03
             438            1044     382.283E-03     402.683E-03
             454            1045     450.918E-03     471.374E-03
             455            1045     450.918E-03     471.374E-03
             438            1045     450.918E-03     471.374E-03
             439            1045     450.918E-03     471.374E-03
             456            1046     520.089E-03     540.172E-03
             440            1046     520.089E-03     540.172E-03
             439            1046     520.089E-03     540.172E-03
             455            1046     520.089E-03     540.172E-03
             456            1047     589.058E-03     608.973E-03
             441            1047     589.058E-03     608.973E-03
             457            1047     589.058E-03     608.973E-03
             440            1047     589.058E-03     608.973E-03
             458            1048     657.791E-03     676.913E-03
             441            1048     657.791E-03     676.913E-03
             457            1048     657.791E-03     676.913E-03
             442            1048     657.791E-03     676.913E-03
             443            1049     725.704E-03     743.984E-03
             458            1049     725.704E-03     743.984E-03
             459            1049     725.704E-03     743.984E-03
             442            1049     725.704E-03     743.984E-03
             460            1050     793.601E-03     809.512E-03
             443            1050     793.601E-03     809.512E-03
             444            1050     793.601E-03     809.512E-03
             459            1050     793.601E-03     809.512E-03
             461            1051     860.102E-03     873.119E-03
             444            1051     860.102E-03     873.119E-03
             460            1051     860.102E-03     873.119E-03
             445            1051     860.102E-03     873.119E-03
             445            1052     928.590E-03     936.421E-03
             446            1052     928.590E-03     936.421E-03
             461            1052     928.590E-03     936.421E-03
             462            1052     928.590E-03     936.421E-03
             447            1053     996.143E-03         1.00123
             462            1053     996.143E-03         1.00123
             463            1053     996.143E-03         1.00123
             446            1053     996.143E-03         1.00123
             463            1054         1.08290         1.10180
             464            1054         1.08290         1.10180
             447            1054         1.08290         1.10180
             448            1054         1.08290         1.10180
             465            1055     190.117E-03     214.318E-03
             466            1055     190.117E-03     214.318E-03
             449            1055     190.117E-03     214.318E-03
             450            1055     190.117E-03     214.318E-03
             450            1056     241.186E-03     248.053E-03
             466            1056     241.186E-03     248.053E-03
             467            1056     241.186E-03     248.053E-03
             451            1056     241.186E-03     248.053E-03
             451            1057     305.169E-03     307.177E-03
             468            1057     305.169E-03     307.177E-03
             452            1057     305.169E-03     307.177E-03
             467            1057     305.169E-03     307.177E-03
             468            1058     375.428E-03     376.794E-03
             452            1058     375.428E-03     376.794E-03
             453            1058     375.428E-03     376.794E-03
             469            1058     375.428E-03     376.794E-03
             470            1059     449.307E-03     450.481E-03
             453            1059     449.307E-03     450.481E-03
             454            1059     449.307E-03     450.481E-03
             469            1059     449.307E-03     450.481E-03
             470            1060     525.333E-03     526.510E-03
             454            1060     525.333E-03     526.510E-03
             455            1060     525.333E-03     526.510E-03
             471            1060     525.333E-03     526.510E-03
             455            1061     602.463E-03     603.514E-03
             456            1061     602.463E-03     603.514E-03
             472            1061     602.463E-03     603.514E-03
             471            1061     602.463E-03     603.514E-03
             457            1062     679.963E-03     681.025E-03
             473            1062     679.963E-03     681.025E-03
             456            1062     679.963E-03     681.025E-03
             472            1062     679.963E-03     681.025E-03
             458            1063     757.665E-03     758.370E-03
             474            1063     757.665E-03     758.370E-03
             457            1063     757.665E-03     758.370E-03
             473            1063     757.665E-03     758.370E-03
             474            1064     834.784E-03     835.258E-03
             475            1064     834.784E-03     835.258E-03
             458            1064     834.784E-03     835.258E-03
             459            1064     834.784E-03     835.258E-03
             475            1065     911.240E-03     910.542E-03
             476            1065     911.240E-03     910.542E-03
             460            1065     911.240E-03     910.542E-03
             459            1065     911.240E-03     910.542E-03
             460            1066     985.362E-03     983.279E-03
             476            1066     985.362E-03     983.279E-03
             477            1066     985.362E-03     983.279E-03
             461            1066     985.362E-03     983.279E-03
             477            1067         1.05266         1.04963
             462            1067         1.05266         1.04963
             461            1067         1.05266         1.04963
             478            1067         1.05266         1.04963
             462            1068         1.10967         1.10527
             478            1068         1.10967         1.10527
             479            1068         1.10967         1.10527
             463            1068         1.10967         1.10527
             464            1069         1.14628         1.13988
             479            1069         1.14628         1.13988
             480            1069         1.14628         1.13988
             463            1069         1.14628         1.13988
             481            1070     150.967E-03     170.096E-03
             466            1070     150.967E-03     170.096E-03
             465            1070     150.967E-03     170.096E-03
             482            1070     150.967E-03     170.096E-03
             482            1071     202.203E-03     223.550E-03
             483            1071     202.203E-03     223.550E-03
             467            1071     202.203E-03     223.550E-03
             466            1071     202.203E-03     223.550E-03
             484            1072     274.772E-03     288.310E-03
             483            1072     274.772E-03     288.310E-03
             467            1072     274.772E-03     288.310E-03
             468            1072     274.772E-03     288.310E-03
             485            1073     351.810E-03     363.004E-03
             484            1073     351.810E-03     363.004E-03
             469            1073     351.810E-03     363.004E-03
             468            1073     351.810E-03     363.004E-03
             469            1074     430.519E-03     441.607E-03
             485            1074     430.519E-03     441.607E-03
             470            1074     430.519E-03     441.607E-03
             486            1074     430.519E-03     441.607E-03
             487            1075     510.617E-03     521.904E-03
             470            1075     510.617E-03     521.904E-03
             486            1075     510.617E-03     521.904E-03
             471            1075     510.617E-03     521.904E-03
             471            1076     591.523E-03     603.145E-03
             487            1076     591.523E-03     603.145E-03
             488            1076     591.523E-03     603.145E-03
             472            1076     591.523E-03     603.145E-03
             472            1077     673.285E-03     685.002E-03
             488            1077     673.285E-03     685.002E-03
             489            1077     673.285E-03     685.002E-03
             473            1077     673.285E-03     685.002E-03
             473            1078     755.567E-03     767.524E-03
             490            1078     755.567E-03     767.524E-03
             489            1078     755.567E-03     767.524E-03
             474            1078     755.567E-03     767.524E-03
             475            1079     838.743E-03     850.894E-03
             490            1079     838.743E-03     850.894E-03
             491            1079     838.743E-03     850.894E-03
             474            1079     838.743E-03     850.894E-03
             475            1080     922.072E-03     935.166E-03
             476            1080     922.072E-03     935.166E-03
             492            1080     922.072E-03     935.166E-03
             491            1080     922.072E-03     935.166E-03
             477            1081         1.00655         1.02088
             492            1081         1.00655         1.02088
             476            1081         1.00655         1.02088
             493            1081         1.00655         1.02088
             477            1082         1.08828         1.10617
             494            1082         1.08828         1.10617
             493            1082         1.08828         1.10617
             478            1082         1.08828         1.10617
             495            1083         1.15975         1.18357
             478            1083         1.15975         1.18357
             479            1083         1.15975         1.18357
             494            1083         1.15975         1.18357
             479            1084         1.22062         1.23748
             495            1084         1.22062         1.23748
             480            1084         1.22062         1.23748
             496            1084         1.22062         1.23748
             481            1085     110.971E-03     128.982E-03
             498            1085     110.971E-03     128.982E-03
             482            1085     110.971E-03     128.982E-03
             497            1085     110.971E-03     128.982E-03
             499            1086     173.340E-03     202.131E-03
             483            1086     173.340E-03     202.131E-03
             498            1086     173.340E-03     202.131E-03
             482            1086     173.340E-03     202.131E-03
             483            1087     251.364E-03     276.239E-03
             484            1087     251.364E-03     276.239E-03
             500            1087     251.364E-03     276.239E-03
             499            1087     251.364E-03     276.239E-03
             485            1088     333.004E-03     355.195E-03
             501            1088     333.004E-03     355.195E-03
             484            1088     333.004E-03     355.195E-03
             500            1088     333.004E-03     355.195E-03
             486            1089     415.084E-03     437.160E-03
             501            1089     415.084E-03     437.160E-03
             502            1089     415.084E-03     437.160E-03
             485            1089     415.084E-03     437.160E-03
             486            1090     497.659E-03     519.999E-03
             503            1090     497.659E-03     519.999E-03
             502            1090     497.659E-03     519.999E-03
             487            1090     497.659E-03     519.999E-03
             503            1091     580.921E-03     603.517E-03
             504            1091     580.921E-03     603.517E-03
             488            1091     580.921E-03     603.517E-03
             487            1091     580.921E-03     603.517E-03
             488            1092     664.713E-03     687.579E-03
             505            1092     664.713E-03     687.579E-03
             489            1092     664.713E-03     687.579E-03
             504            1092     664.713E-03     687.579E-03
             490            1093     749.246E-03     772.414E-03
             505            1093     749.246E-03     772.414E-03
             506            1093     749.246E-03     772.414E-03
             489            1093     749.246E-03     772.414E-03
             490            1094     834.451E-03     858.327E-03
             506            1094     834.451E-03     858.327E-03
             491            1094     834.451E-03     858.327E-03
             507            1094     834.451E-03     858.327E-03
             491            1095     921.029E-03     946.457E-03
             492            1095     921.029E-03     946.457E-03
             508            1095     921.029E-03     946.457E-03
             507            1095     921.029E-03     946.457E-03
             508            1096         1.00831         1.03705
             492            1096         1.00831         1.03705
             493            1096         1.00831         1.03705
             509            1096         1.00831         1.03705
             493            1097         1.10214         1.13307
             509            1097         1.10214         1.13307
             494            1097         1.10214         1.13307
             510            1097         1.10214         1.13307
             495            1098         1.19547         1.22767
             511            1098         1.19547         1.22767
             510            1098         1.19547         1.22767
             494            1098         1.19547         1.22767
             511            1099         1.27502         1.30941
             512            1099         1.27502         1.30941
             496            1099         1.27502         1.30941
             495            1099         1.27502         1.30941
             514            1100     76.9239E-03     113.119E-03
             498            1100     76.9239E-03     113.119E-03
             497            1100     76.9239E-03     113.119E-03
             513            1100     76.9239E-03     113.119E-03
             499            1101     155.050E-03     188.030E-03
             514            1101     155.050E-03     188.030E-03
             515            1101     155.050E-03     188.030E-03
             498            1101     155.050E-03     188.030E-03
             499            1102     236.564E-03     270.687E-03
             515            1102     236.564E-03     270.687E-03
             516            1102     236.564E-03     270.687E-03
             500            1102     236.564E-03     270.687E-03
             501            1103     319.386E-03     353.186E-03
             516            1103     319.386E-03     353.186E-03
             517            1103     319.386E-03     353.186E-03
             500            1103     319.386E-03     353.186E-03
             501            1104     402.616E-03     436.330E-03
             517            1104     402.616E-03     436.330E-03
             518            1104     402.616E-03     436.330E-03
             502            1104     402.616E-03     436.330E-03
             502            1105     485.990E-03     519.909E-03
             519            1105     485.990E-03     519.909E-03
             518            1105     485.990E-03     519.909E-03
             503            1105     485.990E-03     519.909E-03
             503            1106     569.535E-03     603.613E-03
             519            1106     569.535E-03     603.613E-03
             504            1106     569.535E-03     603.613E-03
             520            1106     569.535E-03     603.613E-03
             504            1107     653.289E-03     687.457E-03
             521            1107     653.289E-03     687.457E-03
             505            1107     653.289E-03     687.457E-03
             520            1107     653.289E-03     687.457E-03
             506            1108     737.316E-03     771.585E-03
             505            1108     737.316E-03     771.585E-03
             521            1108     737.316E-03     771.585E-03
             522            1108     737.316E-03     771.585E-03
             507            1109     821.604E-03     856.282E-03
             522            1109     821.604E-03     856.282E-03
             523            1109     821.604E-03     856.282E-03
             506            1109     821.604E-03     856.282E-03
             523            1110     906.693E-03     942.225E-03
             524            1110     906.693E-03     942.225E-03
             508            1110     906.693E-03     942.225E-03
             507            1110     906.693E-03     942.225E-03
             509            1111     993.829E-03         1.03138
             524            1111     993.829E-03         1.03138
             525            1111     993.829E-03         1.03138
             508            1111     993.829E-03         1.03138
             525            1112         1.08585         1.12577
             526            1112         1.08585         1.12577
             510            1112         1.08585         1.12577
             509            1112         1.08585         1.12577
             527            1113         1.20062         1.23624
             511            1113         1.20062         1.23624
             510            1113         1.20062         1.23624
             526            1113         1.20062         1.23624
             512            1114         1.32229         1.34028
             511            1114         1.32229         1.34028
             528            1114         1.32229         1.34028
             527            1114         1.32229         1.34028
             530            1115     73.3930E-03     111.342E-03
             529            1115     73.3930E-03     111.342E-03
             514            1115     73.3930E-03     111.342E-03
             513            1115     73.3930E-03     111.342E-03
             531            1116     150.911E-03     189.942E-03
             515            1116     150.911E-03     189.942E-03
             530            1116     150.911E-03     189.942E-03
             514            1116     150.911E-03     189.942E-03
             516            1117     230.506E-03     273.696E-03
             532            1117     230.506E-03     273.696E-03
             531            1117     230.506E-03     273.696E-03
             515            1117     230.506E-03     273.696E-03
             533            1118     311.695E-03     357.132E-03
             532            1118     311.695E-03     357.132E-03
             516            1118     311.695E-03     357.132E-03
             517            1118     311.695E-03     357.132E-03
             533            1119     393.793E-03     439.538E-03
             518            1119     393.793E-03     439.538E-03
             517            1119     393.793E-03     439.538E-03
             534            1119     393.793E-03     439.538E-03
             518            1120     476.074E-03     521.894E-03
             519            1120     476.074E-03     521.894E-03
             534            1120     476.074E-03     521.894E-03
             535            1120     476.074E-03     521.894E-03
             520            1121     558.123E-03     603.837E-03
             519            1121     558.123E-03     603.837E-03
             535            1121     558.123E-03     603.837E-03
             536            1121     558.123E-03     603.837E-03
             520            1122     639.892E-03     685.513E-03
             521            1122     639.892E-03     685.513E-03
             537            1122     639.892E-03     685.513E-03
             536            1122     639.892E-03     685.513E-03
             521            1123     721.142E-03     766.521E-03
             538            1123     721.142E-03     766.521E-03
             522            1123     721.142E-03     766.521E-03
             537            1123     721.142E-03     766.521E-03
             522            1124     802.192E-03     847.171E-03
             523            1124     802.192E-03     847.171E-03
             538            1124     802.192E-03     847.171E-03
             539            1124     802.192E-03     847.171E-03
             539            1125     882.992E-03     927.198E-03
             540            1125     882.992E-03     927.198E-03
             523            1125     882.992E-03     927.198E-03
             524            1125     882.992E-03     927.198E-03
             540            1126     966.278E-03         1.00892
             525            1126     966.278E-03         1.00892
             524            1126     966.278E-03         1.00892
             541            1126     966.278E-03         1.00892
             525            1127         1.05330         1.09465
             526            1127         1.05330         1.09465
             542            1127         1.05330         1.09465
             541            1127         1.05330         1.09465
             526            1128         1.16112         1.20054
             542            1128         1.16112         1.20054
             543            1128         1.16112         1.20054
             527            1128         1.16112         1.20054
             527            1129         1.31919         1.34789
             528            1129         1.31919         1.34789
             544            1129         1.31919         1.34789
             543            1129         1.31919         1.34789
             994            1451     146.126E-03     162.407E-03
            1010            1451     146.126E-03     162.407E-03
            1011            1451     146.126E-03     162.407E-03
             995            1451     146.126E-03     162.407E-03
             996            1452     224.830E-03     229.520E-03
            1011            1452     224.830E-03     229.520E-03
            1012            1452     224.830E-03     229.520E-03
             995            1452     224.830E-03     229.520E-03
             997            1453     309.080E-03     311.998E-03
            1012            1453     309.080E-03     311.998E-03
            1013            1453     309.080E-03     311.998E-03
             996            1453     309.080E-03     311.998E-03
             997            1454     396.174E-03     399.033E-03
            1014            1454     396.174E-03     399.033E-03
            1013            1454     396.174E-03     399.033E-03
             998            1454     396.174E-03     399.033E-03
             999            1455     485.216E-03     488.090E-03
            1014            1455     485.216E-03     488.090E-03
            1015            1455     485.216E-03     488.090E-03
             998            1455     485.216E-03     488.090E-03
            1015            1456     574.948E-03     578.243E-03
            1016            1456     574.948E-03     578.243E-03
            1000            1456     574.948E-03     578.243E-03
             999            1456     574.948E-03     578.243E-03
            1000            1457     665.147E-03     668.755E-03
            1017            1457     665.147E-03     668.755E-03
            1001            1457     665.147E-03     668.755E-03
            1016            1457     665.147E-03     668.755E-03
            1001            1458     755.283E-03     759.695E-03
            1017            1458     755.283E-03     759.695E-03
            1002            1458     755.283E-03     759.695E-03
            1018            1458     755.283E-03     759.695E-03
            1019            1459     845.431E-03     850.139E-03
            1002            1459     845.431E-03     850.139E-03
            1003            1459     845.431E-03     850.139E-03
            1018            1459     845.431E-03     850.139E-03
            1003            1460     935.003E-03     940.697E-03
            1020            1460     935.003E-03     940.697E-03
            1019            1460     935.003E-03     940.697E-03
            1004            1460     935.003E-03     940.697E-03
            1004            1461         1.02403         1.02983
            1021            1461         1.02403         1.02983
            1020            1461         1.02403         1.02983
            1005            1461         1.02403         1.02983
            1005            1462         1.11232         1.11830
            1021            1462         1.11232         1.11830
            1022            1462         1.11232         1.11830
            1006            1462         1.11232         1.11830
            1022            1463         1.19814         1.20381
            1023            1463         1.19814         1.20381
            1007            1463         1.19814         1.20381
            1006            1463         1.19814         1.20381
            1023            1464         1.27499         1.28041
            1008            1464         1.27499         1.28041
            1007            1464         1.27499         1.28041
            1024            1464         1.27499         1.28041
            1009            1465         1.33873         1.34694
            1024            1465         1.33873         1.34694
            1008            1465         1.33873         1.34694
            1025            1465         1.33873         1.34694
            1027            1466     185.650E-03     204.708E-03
            1010            1466     185.650E-03     204.708E-03
            1011            1466     185.650E-03     204.708E-03
            1026            1466     185.650E-03     204.708E-03
            1012            1467     256.433E-03     255.707E-03
            1028            1467     256.433E-03     255.707E-03
            1027            1467     256.433E-03     255.707E-03
            1011            1467     256.433E-03     255.707E-03
            1029            1468     343.426E-03     339.077E-03
            1013            1468     343.426E-03     339.077E-03
            1012            1468     343.426E-03     339.077E-03
            1028            1468     343.426E-03     339.077E-03
            1014            1469     433.973E-03     430.074E-03
            1030            1469     433.973E-03     430.074E-03
            1029            1469     433.973E-03     430.074E-03
            1013            1469     433.973E-03     430.074E-03
            1014            1470     527.213E-03     523.630E-03
            1015            1470     527.213E-03     523.630E-03
            1030            1470     527.213E-03     523.630E-03
            1031            1470     527.213E-03     523.630E-03
            1031            1471     621.227E-03     618.490E-03
            1015            1471     621.227E-03     618.490E-03
            1016            1471     621.227E-03     618.490E-03
            1032            1471     621.227E-03     618.490E-03
            1017            1472     716.154E-03     714.045E-03
            1032            1472     716.154E-03     714.045E-03
            1016            1472     716.154E-03     714.045E-03
            1033            1472     716.154E-03     714.045E-03
            1034            1473     811.116E-03     809.907E-03
            1018            1473     811.116E-03     809.907E-03
            1017            1473     811.116E-03     809.907E-03
            1033            1473     811.116E-03     809.907E-03
            1035            1474     906.355E-03     905.722E-03
            1018            1474     906.355E-03     905.722E-03
            1034            1474     906.355E-03     905.722E-03
            1019            1474     906.355E-03     905.722E-03
            1035            1475         1.00104         1.00145
            1020            1475         1.00104         1.00145
            1036            1475         1.00104         1.00145
            1019            1475         1.00104         1.00145
            1036            1476         1.09602         1.09680
            1020            1476         1.09602         1.09680
            1021            1476         1.09602         1.09680
            1037            1476         1.09602         1.09680
            1038            1477         1.18978         1.19186
            1022            1477         1.18978         1.19186
            1021            1477         1.18978         1.19186
            1037            1477         1.18978         1.19186
            1039            1478         1.28386         1.28590
            1038            1478         1.28386         1.28590
            1023            1478         1.28386         1.28590
            1022            1478         1.28386         1.28590
            1023            1479         1.37009         1.37277
            1024            1479         1.37009         1.37277
            1040            1479         1.37009         1.37277
            1039            1479         1.37009         1.37277
            1024            1480         1.42746         1.43553
            1025            1480         1.42746         1.43553
            1041            1480         1.42746         1.43553
            1040            1480         1.42746         1.43553
            1043            1481     143.666E-03     173.479E-03
            1042            1481     143.666E-03     173.479E-03
            1027            1481     143.666E-03     173.479E-03
            1026            1481     143.666E-03     173.479E-03
            1044            1482     213.356E-03     244.815E-03
            1043            1482     213.356E-03     244.815E-03
            1027            1482     213.356E-03     244.815E-03
            1028            1482     213.356E-03     244.815E-03
            1045            1483     307.179E-03     333.771E-03
            1029            1483     307.179E-03     333.771E-03
            1028            1483     307.179E-03     333.771E-03
            1044            1483     307.179E-03     333.771E-03
            1030            1484     403.466E-03     430.016E-03
            1029            1484     403.466E-03     430.016E-03
            1046            1484     403.466E-03     430.016E-03
            1045            1484     403.466E-03     430.016E-03
            1031            1485     499.530E-03     526.978E-03
            1047            1485     499.530E-03     526.978E-03
            1030            1485     499.530E-03     526.978E-03
            1046            1485     499.530E-03     526.978E-03
            1032            1486     596.445E-03     624.167E-03
            1031            1486     596.445E-03     624.167E-03
            1047            1486     596.445E-03     624.167E-03
            1048            1486     596.445E-03     624.167E-03
            1049            1487     693.669E-03     721.554E-03
            1048            1487     693.669E-03     721.554E-03
            1033            1487     693.669E-03     721.554E-03
            1032            1487     693.669E-03     721.554E-03
            1033            1488     791.305E-03     819.018E-03
            1049            1488     791.305E-03     819.018E-03
            1050            1488     791.305E-03     819.018E-03
            1034            1488     791.305E-03     819.018E-03
            1051            1489     889.092E-03     916.903E-03
            1035            1489     889.092E-03     916.903E-03
            1050            1489     889.092E-03     916.903E-03
            1034            1489     889.092E-03     916.903E-03
            1052            1490     987.437E-03         1.01498
            1035            1490     987.437E-03         1.01498
            1036            1490     987.437E-03         1.01498
            1051            1490     987.437E-03         1.01498
            1036            1491         1.08632         1.11415
            1053            1491         1.08632         1.11415
            1052            1491         1.08632         1.11415
            1037            1491         1.08632         1.11415
            1038            1492         1.18614         1.21485
            1054            1492         1.18614         1.21485
            1053            1492         1.18614         1.21485
            1037            1492         1.18614         1.21485
            1038            1493         1.28708         1.31844
            1054            1493         1.28708         1.31844
            1039            1493         1.28708         1.31844
            1055            1493         1.28708         1.31844
            1040            1494         1.40112         1.43332
            1056            1494         1.40112         1.43332
            1055            1494         1.40112         1.43332
            1039            1494         1.40112         1.43332
            1041            1495         1.50940         1.52708
            1040            1495         1.50940         1.52708
            1056            1495         1.50940         1.52708
            1057            1495         1.50940         1.52708
            1043            1496     114.551E-03     161.838E-03
            1058            1496     114.551E-03     161.838E-03
            1059            1496     114.551E-03     161.838E-03
            1042            1496     114.551E-03     161.838E-03
            1059            1497     189.635E-03     251.195E-03
            1043            1497     189.635E-03     251.195E-03
            1044            1497     189.635E-03     251.195E-03
            1060            1497     189.635E-03     251.195E-03
            1060            1498     283.652E-03     344.404E-03
            1061            1498     283.652E-03     344.404E-03
            1045            1498     283.652E-03     344.404E-03
            1044            1498     283.652E-03     344.404E-03
            1062            1499     381.303E-03     441.284E-03
            1046            1499     381.303E-03     441.284E-03
            1045            1499     381.303E-03     441.284E-03
            1061            1499     381.303E-03     441.284E-03
            1047            1500     478.951E-03     538.426E-03
            1062            1500     478.951E-03     538.426E-03
            1063            1500     478.951E-03     538.426E-03
            1046            1500     478.951E-03     538.426E-03
            1063            1501     576.938E-03     635.620E-03
            1064            1501     576.938E-03     635.620E-03
            1048            1501     576.938E-03     635.620E-03
            1047            1501     576.938E-03     635.620E-03
            1065            1502     674.807E-03     732.527E-03
            1064            1502     674.807E-03     732.527E-03
            1049            1502     674.807E-03     732.527E-03
            1048            1502     674.807E-03     732.527E-03
            1049            1503     772.499E-03     829.575E-03
            1050            1503     772.499E-03     829.575E-03
            1065            1503     772.499E-03     829.575E-03
            1066            1503     772.499E-03     829.575E-03
            1066            1504     870.108E-03     926.115E-03
            1067            1504     870.108E-03     926.115E-03
            1050            1504     870.108E-03     926.115E-03
            1051            1504     870.108E-03     926.115E-03
            1068            1505     967.321E-03         1.02277
            1067            1505     967.321E-03         1.02277
            1051            1505     967.321E-03         1.02277
            1052            1505     967.321E-03         1.02277
            1068            1506         1.06411         1.11842
            1069            1506         1.06411         1.11842
            1053            1506         1.06411         1.11842
            1052            1506         1.06411         1.11842
            1053            1507         1.16087         1.21432
            1069            1507         1.16087         1.21432
            1054            1507         1.16087         1.21432
            1070            1507         1.16087         1.21432
            1071            1508         1.25755         1.31074
            1055            1508         1.25755         1.31074
            1054            1508         1.25755         1.31074
            1070            1508         1.25755         1.31074
            1056            1509         1.36675         1.41856
            1055            1509         1.36675         1.41856
            1071            1509         1.36675         1.41856
            1072            1509         1.36675         1.41856
            1073            1510         1.51475         1.55720
            1072            1510         1.51475         1.55720
            1056            1510         1.51475         1.55720
            1057            1510         1.51475         1.55720
            1753            2102     189.432E-03     212.222E-03
            1770            2102     189.432E-03     212.222E-03
            1754            2102     189.432E-03     212.222E-03
            1769            2102     189.432E-03     212.222E-03
            1754            2103     247.366E-03     275.329E-03
            1755            2103     247.366E-03     275.329E-03
            1770            2103     247.366E-03     275.329E-03
            1771            2103     247.366E-03     275.329E-03
            1755            2104     326.471E-03     354.656E-03
            1756            2104     326.471E-03     354.656E-03
            1772            2104     326.471E-03     354.656E-03
            1771            2104     326.471E-03     354.656E-03
            1757            2105     411.505E-03     439.368E-03
            1772            2105     411.505E-03     439.368E-03
            1756            2105     411.505E-03     439.368E-03
            1773            2105     411.505E-03     439.368E-03
            1773            2106     499.641E-03     527.070E-03
            1758            2106     499.641E-03     527.070E-03
            1757            2106     499.641E-03     527.070E-03
            1774            2106     499.641E-03     527.070E-03
            1774            2107     589.174E-03     616.486E-03
            1758            2107     589.174E-03     616.486E-03
            1759            2107     589.174E-03     616.486E-03
            1775            2107     589.174E-03     616.486E-03
            1759            2108     679.830E-03     706.649E-03
            1760            2108     679.830E-03     706.649E-03
            1776            2108     679.830E-03     706.649E-03
            1775            2108     679.830E-03     706.649E-03
            1760            2109     770.607E-03     797.918E-03
            1761            2109     770.607E-03     797.918E-03
            1776            2109     770.607E-03     797.918E-03
            1777            2109     770.607E-03     797.918E-03
            1761            2110     862.619E-03     888.780E-03
            1777            2110     862.619E-03     888.780E-03
            1778            2110     862.619E-03     888.780E-03
            1762            2110     862.619E-03     888.780E-03
            1762            2111     953.608E-03     981.345E-03
            1779            2111     953.608E-03     981.345E-03
            1778            2111     953.608E-03     981.345E-03
            1763            2111     953.608E-03     981.345E-03
            1763            2112         1.04678         1.07216
            1764            2112         1.04678         1.07216
            1780            2112         1.04678         1.07216
            1779            2112         1.04678         1.07216
            1765            2113         1.13773         1.16583
            1781            2113         1.13773         1.16583
            1780            2113         1.13773         1.16583
            1764            2113         1.13773         1.16583
            1766            2114         1.23068         1.25623
            1765            2114         1.23068         1.25623
            1781            2114         1.23068         1.25623
            1782            2114         1.23068         1.25623
            1767            2115         1.32375         1.34939
            1783            2115         1.32375         1.34939
            1782            2115         1.32375         1.34939
            1766            2115         1.32375         1.34939
            1768            2116         1.40761          1.4375
            1783            2116         1.40761          1.4375
            1784            2116         1.40761          1.4375
            1767            2116         1.40761          1.4375
            1769            2117     177.828E-03     186.686E-03
            1786            2117     177.828E-03     186.686E-03
            1770            2117     177.828E-03     186.686E-03
            1785            2117     177.828E-03     186.686E-03
            1770            2118     235.766E-03     249.782E-03
            1786            2118     235.766E-03     249.782E-03
            1787            2118     235.766E-03     249.782E-03
            1771            2118     235.766E-03     249.782E-03
            1788            2119     307.378E-03     321.675E-03
            1771            2119     307.378E-03     321.675E-03
            1772            2119     307.378E-03     321.675E-03
            1787            2119     307.378E-03     321.675E-03
            1772            2120     386.585E-03     399.094E-03
            1773            2120     386.585E-03     399.094E-03
            1789            2120     386.585E-03     399.094E-03
            1788            2120     386.585E-03     399.094E-03
            1773            2121     468.160E-03     479.793E-03
            1789            2121     468.160E-03     479.793E-03
            1774            2121     468.160E-03     479.793E-03
            1790            2121     468.160E-03     479.793E-03
            1790            2122     550.696E-03     562.222E-03
            1774            2122     550.696E-03     562.222E-03
            1775            2122     550.696E-03     562.222E-03
            1791            2122     550.696E-03     562.222E-03
            1776            2123     634.403E-03     645.256E-03
            1791            2123     634.403E-03     645.256E-03
            1775            2123     634.403E-03     645.256E-03
            1792            2123     634.403E-03     645.256E-03
            1793            2124     718.109E-03     729.358E-03
            1776            2124     718.109E-03     729.358E-03
            1777            2124     718.109E-03     729.358E-03
            1792            2124     718.109E-03     729.358E-03
            1777            2125     802.970E-03     813.111E-03
            1794            2125     802.970E-03     813.111E-03
            1778            2125     802.970E-03     813.111E-03
            1793            2125     802.970E-03     813.111E-03
            1794            2126     886.872E-03     898.181E-03
            1779            2126     886.872E-03     898.181E-03
            1778            2126     886.872E-03     898.181E-03
            1795            2126     886.872E-03     898.181E-03
            1780            2127     972.453E-03     982.003E-03
            1795            2127     972.453E-03     982.003E-03
            1779            2127     972.453E-03     982.003E-03
            1796            2127     972.453E-03     982.003E-03
            1796            2128         1.05628         1.06743
            1780            2128         1.05628         1.06743
            1781            2128         1.05628         1.06743
            1797            2128         1.05628         1.06743
            1798            2129         1.13883         1.14749
            1797            2129         1.13883         1.14749
            1782            2129         1.13883         1.14749
            1781            2129         1.13883         1.14749
            1799            2130         1.22915         1.23759
            1782            2130         1.22915         1.23759
            1783            2130         1.22915         1.23759
            1798            2130         1.22915         1.23759
            1800            2131         1.32852         1.34727
            1799            2131         1.32852         1.34727
            1783            2131         1.32852         1.34727
            1784            2131         1.32852         1.34727
            1802            2132     155.343E-03     197.197E-03
            1786            2132     155.343E-03     197.197E-03
            1801            2132     155.343E-03     197.197E-03
            1785            2132     155.343E-03     197.197E-03
            1786            2133     192.009E-03     251.872E-03
            1787            2133     192.009E-03     251.872E-03
            1803            2133     192.009E-03     251.872E-03
            1802            2133     192.009E-03     251.872E-03
            1787            2134     253.664E-03     319.586E-03
            1804            2134     253.664E-03     319.586E-03
            1788            2134     253.664E-03     319.586E-03
            1803            2134     253.664E-03     319.586E-03
            1805            2135     324.505E-03     393.074E-03
            1788            2135     324.505E-03     393.074E-03
            1789            2135     324.505E-03     393.074E-03
            1804            2135     324.505E-03     393.074E-03
            1789            2136     398.587E-03     467.984E-03
            1806            2136     398.587E-03     467.984E-03
            1790            2136     398.587E-03     467.984E-03
            1805            2136     398.587E-03     467.984E-03
            1806            2137     473.921E-03     544.085E-03
            1807            2137     473.921E-03     544.085E-03
            1791            2137     473.921E-03     544.085E-03
            1790            2137     473.921E-03     544.085E-03
            1808            2138     550.315E-03     620.626E-03
            1807            2138     550.315E-03     620.626E-03
            1792            2138     550.315E-03     620.626E-03
            1791            2138     550.315E-03     620.626E-03
            1809            2139     627.062E-03     697.902E-03
            1792            2139     627.062E-03     697.902E-03
            1808            2139     627.062E-03     697.902E-03
            1793            2139     627.062E-03     697.902E-03
            1809            2140     704.466E-03     775.097E-03
            1793            2140     704.466E-03     775.097E-03
            1794            2140     704.466E-03     775.097E-03
            1810            2140     704.466E-03     775.097E-03
            1811            2141     781.934E-03     853.064E-03
            1810            2141     781.934E-03     853.064E-03
            1794            2141     781.934E-03     853.064E-03
            1795            2141     781.934E-03     853.064E-03
            1796            2142     859.848E-03     930.481E-03
            1812            2142     859.848E-03     930.481E-03
            1811            2142     859.848E-03     930.481E-03
            1795            2142     859.848E-03     930.481E-03
            1812            2143     938.220E-03         1.00914
            1813            2143     938.220E-03         1.00914
            1797            2143     938.220E-03         1.00914
            1796            2143     938.220E-03         1.00914
            1798            2144         1.01442         1.08611
            1814            2144         1.01442         1.08611
            1813            2144         1.01442         1.08611
            1797            2144         1.01442         1.08611
            1814            2145         1.09922         1.17011
            1798            2145         1.09922         1.17011
            1799            2145         1.09922         1.17011
            1815            2145         1.09922         1.17011
            1816            2146         1.23670         1.29828
            1800            2146         1.23670         1.29828
            1799            2146         1.23670         1.29828
            1815            2146         1.23670         1.29828
            1817            2147     218.997E-03     216.446E-03
            1818            2147     218.997E-03     216.446E-03
            1801            2147     218.997E-03     216.446E-03
            1802            2147     218.997E-03     216.446E-03
            1818            2148     264.206E-03     248.774E-03
            1802            2148     264.206E-03     248.774E-03
            1819            2148     264.206E-03     248.774E-03
            1803            2148     264.206E-03     248.774E-03
            1804            2149     324.884E-03     303.855E-03
            1820            2149     324.884E-03     303.855E-03
            1803            2149     324.884E-03     303.855E-03
            1819            2149     324.884E-03     303.855E-03
            1821            2150     392.320E-03     370.034E-03
            1820            2150     392.320E-03     370.034E-03
            1804            2150     392.320E-03     370.034E-03
            1805            2150     392.320E-03     370.034E-03
            1805            2151     463.528E-03     439.970E-03
            1822            2151     463.528E-03     439.970E-03
            1821            2151     463.528E-03     439.970E-03
            1806            2151     463.528E-03     439.970E-03
            1806            2152     537.000E-03     512.385E-03
            1823            2152     537.000E-03     512.385E-03
            1822            2152     537.000E-03     512.385E-03
            1807            2152     537.000E-03     512.385E-03
            1824            2153     611.529E-03     586.514E-03
            1807            2153     611.529E-03     586.514E-03
            1823            2153     611.529E-03     586.514E-03
            1808            2153     611.529E-03     586.514E-03
            1825            2154     687.088E-03     661.460E-03
            1824            2154     687.088E-03     661.460E-03
            1808            2154     687.088E-03     661.460E-03
            1809            2154     687.088E-03     661.460E-03
            1826            2155     762.843E-03     737.255E-03
            1809            2155     762.843E-03     737.255E-03
            1810            2155     762.843E-03     737.255E-03
            1825            2155     762.843E-03     737.255E-03
            1810            2156     839.250E-03     813.056E-03
            1811            2156     839.250E-03     813.056E-03
            1826            2156     839.250E-03     813.056E-03
            1827            2156     839.250E-03     813.056E-03
            1811            2157     915.035E-03     889.095E-03
            1827            2157     915.035E-03     889.095E-03
            1828            2157     915.035E-03     889.095E-03
            1812            2157     915.035E-03     889.095E-03
            1828            2158     991.640E-03     964.915E-03
            1812            2158     991.640E-03     964.915E-03
            1813            2158     991.640E-03     964.915E-03
            1829            2158     991.640E-03     964.915E-03
            1814            2159         1.06787         1.04218
            1829            2159         1.06787         1.04218
            1813            2159         1.06787         1.04218
            1830            2159         1.06787         1.04218
            1814            2160         1.14514         1.11927
            1815            2160         1.14514         1.11927
            1830            2160         1.14514         1.11927
            1831            2160         1.14514         1.11927
            1816            2161         1.16822         1.13207
            1831            2161         1.16822         1.13207
            1815            2161         1.16822         1.13207
            1832            2161         1.16822         1.13207
            2273            2468     282.118E-06     302.902E-06
            2289            2468     282.118E-06     302.902E-06
            2274            2468     282.118E-06     302.902E-06
            2290            2468     282.118E-06     302.902E-06
            2275            2469     213.884E-06     238.427E-06
            2290            2469     213.884E-06     238.427E-06
            2291            2469     213.884E-06     238.427E-06
            2274            2469     213.884E-06     238.427E-06
            2291            2470     190.615E-06     215.088E-06
            2292            2470     190.615E-06     215.088E-06
            2276            2470     190.615E-06     215.088E-06
            2275            2470     190.615E-06     215.088E-06
            2292            2471     183.562E-06     207.212E-06
            2293            2471     183.562E-06     207.212E-06
            2277            2471     183.562E-06     207.212E-06
            2276            2471     183.562E-06     207.212E-06
            2293            2472     177.760E-06     200.412E-06
            2277            2472     177.760E-06     200.412E-06
            2278            2472     177.760E-06     200.412E-06
            2294            2472     177.760E-06     200.412E-06
            2294            2473     172.222E-06     194.264E-06
            2279            2473     172.222E-06     194.264E-06
            2295            2473     172.222E-06     194.264E-06
            2278            2473     172.222E-06     194.264E-06
            2279            2474     166.536E-06     187.867E-06
            2296            2474     166.536E-06     187.867E-06
            2280            2474     166.536E-06     187.867E-06
            2295            2474     166.536E-06     187.867E-06
            2296            2475     161.400E-06     181.816E-06
            2281            2475     161.400E-06     181.816E-06
            2297            2475     161.400E-06     181.816E-06
            2280            2475     161.400E-06     181.816E-06
            2297            2476     156.756E-06     176.029E-06
            2282            2476     156.756E-06     176.029E-06
            2298            2476     156.756E-06     176.029E-06
            2281            2476     156.756E-06     176.029E-06
            2282            2477     153.044E-06     170.710E-06
            2299            2477     153.044E-06     170.710E-06
            2298            2477     153.044E-06     170.710E-06
            2283            2477     153.044E-06     170.710E-06
            2284            2478     150.076E-06     165.925E-06
            2283            2478     150.076E-06     165.925E-06
            2300            2478     150.076E-06     165.925E-06
            2299            2478     150.076E-06     165.925E-06
            2301            2479     148.214E-06     161.525E-06
            2284            2479     148.214E-06     161.525E-06
            2285            2479     148.214E-06     161.525E-06
            2300            2479     148.214E-06     161.525E-06
            2302            2480     146.864E-06     157.378E-06
            2285            2480     146.864E-06     157.378E-06
            2301            2480     146.864E-06     157.378E-06
            2286            2480     146.864E-06     157.378E-06
            2303            2481     144.762E-06     156.179E-06
            2286            2481     144.762E-06     156.179E-06
            2287            2481     144.762E-06     156.179E-06
            2302            2481     144.762E-06     156.179E-06
            2287            2482     144.224E-06     155.891E-06
            2288            2482     144.224E-06     155.891E-06
            2303            2482     144.224E-06     155.891E-06
            2304            2482     144.224E-06     155.891E-06
            2289            2483     236.398E-06     240.371E-06
            2305            2483     236.398E-06     240.371E-06
            2290            2483     236.398E-06     240.371E-06
            2306            2483     236.398E-06     240.371E-06
            2307            2484     214.131E-06     225.941E-06
            2306            2484     214.131E-06     225.941E-06
            2290            2484     214.131E-06     225.941E-06
            2291            2484     214.131E-06     225.941E-06
            2307            2485     202.304E-06     217.402E-06
            2292            2485     202.304E-06     217.402E-06
            2308            2485     202.304E-06     217.402E-06
            2291            2485     202.304E-06     217.402E-06
            2309            2486     196.461E-06     211.155E-06
            2293            2486     196.461E-06     211.155E-06
            2292            2486     196.461E-06     211.155E-06
            2308            2486     196.461E-06     211.155E-06
            2309            2487     189.696E-06     203.315E-06
            2310            2487     189.696E-06     203.315E-06
            2293            2487     189.696E-06     203.315E-06
            2294            2487     189.696E-06     203.315E-06
            2294            2488     182.080E-06     195.681E-06
            2310            2488     182.080E-06     195.681E-06
            2311            2488     182.080E-06     195.681E-06
            2295            2488     182.080E-06     195.681E-06
            2295            2489     175.694E-06     188.726E-06
            2312            2489     175.694E-06     188.726E-06
            2296            2489     175.694E-06     188.726E-06
            2311            2489     175.694E-06     188.726E-06
            2296            2490     169.814E-06     182.449E-06
            2312            2490     169.814E-06     182.449E-06
            2313            2490     169.814E-06     182.449E-06
            2297            2490     169.814E-06     182.449E-06
            2314            2491     164.966E-06     176.968E-06
            2313            2491     164.966E-06     176.968E-06
            2298            2491     164.966E-06     176.968E-06
            2297            2491     164.966E-06     176.968E-06
            2298            2492     160.917E-06     172.057E-06
            2314            2492     160.917E-06     172.057E-06
            2315            2492     160.917E-06     172.057E-06
            2299            2492     160.917E-06     172.057E-06
            2300            2493     157.645E-06     167.980E-06
            2316            2493     157.645E-06     167.980E-06
            2315            2493     157.645E-06     167.980E-06
            2299            2493     157.645E-06     167.980E-06
            2317            2494     155.422E-06     164.438E-06
            2300            2494     155.422E-06     164.438E-06
            2301            2494     155.422E-06     164.438E-06
            2316            2494     155.422E-06     164.438E-06
            2318            2495     154.274E-06     161.471E-06
            2301            2495     154.274E-06     161.471E-06
            2302            2495     154.274E-06     161.471E-06
            2317            2495     154.274E-06     161.471E-06
            2302            2496     154.851E-06     158.085E-06
            2319            2496     154.851E-06     158.085E-06
            2318            2496     154.851E-06     158.085E-06
            2303            2496     154.851E-06     158.085E-06
            2303            2497     160.210E-06     152.122E-06
            2304            2497     160.210E-06     152.122E-06
            2320            2497     160.210E-06     152.122E-06
            2319            2497     160.210E-06     152.122E-06
            2306            2498     168.491E-06     175.314E-06
            2321            2498     168.491E-06     175.314E-06
            2305            2498     168.491E-06     175.314E-06
            2322            2498     168.491E-06     175.314E-06
            2307            2499     187.784E-06     198.252E-06
            2306            2499     187.784E-06     198.252E-06
            2323            2499     187.784E-06     198.252E-06
            2322            2499     187.784E-06     198.252E-06
            2323            2500     207.574E-06     213.759E-06
            2307            2500     207.574E-06     213.759E-06
            2308            2500     207.574E-06     213.759E-06
            2324            2500     207.574E-06     213.759E-06
            2309            2501     205.933E-06     210.176E-06
            2325            2501     205.933E-06     210.176E-06
            2324            2501     205.933E-06     210.176E-06
            2308            2501     205.933E-06     210.176E-06
            2325            2502     198.401E-06     203.149E-06
            2309            2502     198.401E-06     203.149E-06
            2326            2502     198.401E-06     203.149E-06
            2310            2502     198.401E-06     203.149E-06
            2310            2503     191.037E-06     195.308E-06
            2326            2503     191.037E-06     195.308E-06
            2327            2503     191.037E-06     195.308E-06
            2311            2503     191.037E-06     195.308E-06
            2327            2504     183.952E-06     188.434E-06
            2311            2504     183.952E-06     188.434E-06
            2312            2504     183.952E-06     188.434E-06
            2328            2504     183.952E-06     188.434E-06
            2329            2505     178.230E-06     182.584E-06
            2313            2505     178.230E-06     182.584E-06
            2312            2505     178.230E-06     182.584E-06
            2328            2505     178.230E-06     182.584E-06
            2313            2506     173.296E-06     177.564E-06
            2329            2506     173.296E-06     177.564E-06
            2314            2506     173.296E-06     177.564E-06
            2330            2506     173.296E-06     177.564E-06
            2315            2507     169.150E-06     173.494E-06
            2314            2507     169.150E-06     173.494E-06
            2331            2507     169.150E-06     173.494E-06
            2330            2507     169.150E-06     173.494E-06
            2316            2508     165.863E-06     169.974E-06
            2332            2508     165.863E-06     169.974E-06
            2315            2508     165.863E-06     169.974E-06
            2331            2508     165.863E-06     169.974E-06
            2332            2509     163.022E-06     167.533E-06
            2317            2509     163.022E-06     167.533E-06
            2333            2509     163.022E-06     167.533E-06
            2316            2509     163.022E-06     167.533E-06
            2318            2510     161.763E-06     165.836E-06
            2333            2510     161.763E-06     165.836E-06
            2317            2510     161.763E-06     165.836E-06
            2334            2510     161.763E-06     165.836E-06
            2335            2511     165.428E-06     160.297E-06
            2334            2511     165.428E-06     160.297E-06
            2319            2511     165.428E-06     160.297E-06
            2318            2511     165.428E-06     160.297E-06
            2319            2512     169.223E-06     151.764E-06
            2336            2512     169.223E-06     151.764E-06
            2335            2512     169.223E-06     151.764E-06
            2320            2512     169.223E-06     151.764E-06
            2338            2513     114.029E-06     114.576E-06
            2322            2513     114.029E-06     114.576E-06
            2321            2513     114.029E-06     114.576E-06
            2337            2513     114.029E-06     114.576E-06
            2322            2514     166.913E-06     167.892E-06
            2339            2514     166.913E-06     167.892E-06
            2338            2514     166.913E-06     167.892E-06
            2323            2514     166.913E-06     167.892E-06
            2324            2515     201.961E-06     196.598E-06
            2339            2515     201.961E-06     196.598E-06
            2340            2515     201.961E-06     196.598E-06
            2323            2515     201.961E-06     196.598E-06
            2341            2516     206.623E-06     200.622E-06
            2324            2516     206.623E-06     200.622E-06
            2340            2516     206.623E-06     200.622E-06
            2325            2516     206.623E-06     200.622E-06
            2341            2517     202.797E-06     197.046E-06
            2326            2517     202.797E-06     197.046E-06
            2342            2517     202.797E-06     197.046E-06
            2325            2517     202.797E-06     197.046E-06
            2343            2518     197.008E-06     191.799E-06
            2342            2518     197.008E-06     191.799E-06
            2327            2518     197.008E-06     191.799E-06
            2326            2518     197.008E-06     191.799E-06
            2327            2519     191.427E-06     186.629E-06
            2343            2519     191.427E-06     186.629E-06
            2328            2519     191.427E-06     186.629E-06
            2344            2519     191.427E-06     186.629E-06
            2328            2520     186.344E-06     182.044E-06
            2344            2520     186.344E-06     182.044E-06
            2345            2520     186.344E-06     182.044E-06
            2329            2520     186.344E-06     182.044E-06
            2345            2521     181.884E-06     178.200E-06
            2329            2521     181.884E-06     178.200E-06
            2330            2521     181.884E-06     178.200E-06
            2346            2521     181.884E-06     178.200E-06
            2347            2522     177.988E-06     174.872E-06
            2330            2522     177.988E-06     174.872E-06
            2346            2522     177.988E-06     174.872E-06
            2331            2522     177.988E-06     174.872E-06
            2347            2523     174.498E-06     172.363E-06
            2332            2523     174.498E-06     172.363E-06
            2348            2523     174.498E-06     172.363E-06
            2331            2523     174.498E-06     172.363E-06
            2348            2524     171.672E-06     170.399E-06
            2332            2524     171.672E-06     170.399E-06
            2333            2524     171.672E-06     170.399E-06
            2349            2524     171.672E-06     170.399E-06
            2333            2525     169.272E-06     169.302E-06
            2349            2525     169.272E-06     169.302E-06
            2334            2525     169.272E-06     169.302E-06
            2350            2525     169.272E-06     169.302E-06
            2334            2526     168.004E-06     169.141E-06
            2351            2526     168.004E-06     169.141E-06
            2350            2526     168.004E-06     169.141E-06
            2335            2526     168.004E-06     169.141E-06
            2336            2527     172.436E-06     165.493E-06
            2351            2527     172.436E-06     165.493E-06
            2352            2527     172.436E-06     165.493E-06
            2335            2527     172.436E-06     165.493E-06
            2353            2528     88.0132E-06     94.1880E-06
            2337            2528     88.0132E-06     94.1880E-06
            2338            2528     88.0132E-06     94.1880E-06
            2354            2528     88.0132E-06     94.1880E-06
            2339            2529     153.937E-06     134.089E-06
            2355            2529     153.937E-06     134.089E-06
            2338            2529     153.937E-06     134.089E-06
            2354            2529     153.937E-06     134.089E-06
            2340            2530     186.902E-06     168.470E-06
            2339            2530     186.902E-06     168.470E-06
            2356            2530     186.902E-06     168.470E-06
            2355            2530     186.902E-06     168.470E-06
            2340            2531     200.160E-06     183.163E-06
            2357            2531     200.160E-06     183.163E-06
            2341            2531     200.160E-06     183.163E-06
            2356            2531     200.160E-06     183.163E-06
            2358            2532     203.216E-06     186.778E-06
            2357            2532     203.216E-06     186.778E-06
            2342            2532     203.216E-06     186.778E-06
            2341            2532     203.216E-06     186.778E-06
            2342            2533     201.473E-06     186.332E-06
            2358            2533     201.473E-06     186.332E-06
            2343            2533     201.473E-06     186.332E-06
            2359            2533     201.473E-06     186.332E-06
            2343            2534     198.428E-06     184.120E-06
            2360            2534     198.428E-06     184.120E-06
            2344            2534     198.428E-06     184.120E-06
            2359            2534     198.428E-06     184.120E-06
            2360            2535     194.708E-06     181.559E-06
            2345            2535     194.708E-06     181.559E-06
            2361            2535     194.708E-06     181.559E-06
            2344            2535     194.708E-06     181.559E-06
            2346            2536     190.964E-06     179.029E-06
            2362            2536     190.964E-06     179.029E-06
            2345            2536     190.964E-06     179.029E-06
            2361            2536     190.964E-06     179.029E-06
            2346            2537     187.382E-06     176.766E-06
            2363            2537     187.382E-06     176.766E-06
            2362            2537     187.382E-06     176.766E-06
            2347            2537     187.382E-06     176.766E-06
            2363            2538     183.920E-06     174.998E-06
            2348            2538     183.920E-06     174.998E-06
            2347            2538     183.920E-06     174.998E-06
            2364            2538     183.920E-06     174.998E-06
            2364            2539     180.893E-06     173.619E-06
            2348            2539     180.893E-06     173.619E-06
            2365            2539     180.893E-06     173.619E-06
            2349            2539     180.893E-06     173.619E-06
            2366            2540     177.536E-06     172.870E-06
            2349            2540     177.536E-06     172.870E-06
            2365            2540     177.536E-06     172.870E-06
            2350            2540     177.536E-06     172.870E-06
            2367            2541     172.747E-06     175.591E-06
            2350            2541     172.747E-06     175.591E-06
            2366            2541     172.747E-06     175.591E-06
            2351            2541     172.747E-06     175.591E-06
            2367            2542     168.836E-06     180.770E-06
            2368            2542     168.836E-06     180.770E-06
            2352            2542     168.836E-06     180.770E-06
            2351            2542     168.836E-06     180.770E-06
            2545            2693     144.222E-06     155.929E-06
            2562            2693     144.222E-06     155.929E-06
            2546            2693     144.222E-06     155.929E-06
            2561            2693     144.222E-06     155.929E-06
            2546            2694     144.772E-06     156.160E-06
            2562            2694     144.772E-06     156.160E-06
            2547            2694     144.772E-06     156.160E-06
            2563            2694     144.772E-06     156.160E-06
            2548            2695     146.848E-06     157.333E-06
            2547            2695     146.848E-06     157.333E-06
            2564            2695     146.848E-06     157.333E-06
            2563            2695     146.848E-06     157.333E-06
            2565            2696     148.150E-06     161.453E-06
            2549            2696     148.150E-06     161.453E-06
            2564            2696     148.150E-06     161.453E-06
            2548            2696     148.150E-06     161.453E-06
            2566            2697     149.963E-06     165.800E-06
            2565            2697     149.963E-06     165.800E-06
            2550            2697     149.963E-06     165.800E-06
            2549            2697     149.963E-06     165.800E-06
            2566            2698     152.875E-06     170.529E-06
            2551            2698     152.875E-06     170.529E-06
            2550            2698     152.875E-06     170.529E-06
            2567            2698     152.875E-06     170.529E-06
            2567            2699     156.525E-06     175.789E-06
            2568            2699     156.525E-06     175.789E-06
            2551            2699     156.525E-06     175.789E-06
            2552            2699     156.525E-06     175.789E-06
            2568            2700     161.104E-06     181.516E-06
            2569            2700     161.104E-06     181.516E-06
            2552            2700     161.104E-06     181.516E-06
            2553            2700     161.104E-06     181.516E-06
            2569            2701     166.177E-06     187.508E-06
            2570            2701     166.177E-06     187.508E-06
            2553            2701     166.177E-06     187.508E-06
            2554            2701     166.177E-06     187.508E-06
            2571            2702     171.804E-06     193.846E-06
            2554            2702     171.804E-06     193.846E-06
            2555            2702     171.804E-06     193.846E-06
            2570            2702     171.804E-06     193.846E-06
            2571            2703     177.282E-06     199.929E-06
            2572            2703     177.282E-06     199.929E-06
            2556            2703     177.282E-06     199.929E-06
            2555            2703     177.282E-06     199.929E-06
            2557            2704     182.990E-06     206.636E-06
            2573            2704     182.990E-06     206.636E-06
            2572            2704     182.990E-06     206.636E-06
            2556            2704     182.990E-06     206.636E-06
            2573            2705     189.810E-06     214.300E-06
            2574            2705     189.810E-06     214.300E-06
            2558            2705     189.810E-06     214.300E-06
            2557            2705     189.810E-06     214.300E-06
            2575            2706     212.671E-06     237.260E-06
            2574            2706     212.671E-06     237.260E-06
            2558            2706     212.671E-06     237.260E-06
            2559            2706     212.671E-06     237.260E-06
            2559            2707     280.423E-06     301.297E-06
            2560            2707     280.423E-06     301.297E-06
            2575            2707     280.423E-06     301.297E-06
            2576            2707     280.423E-06     301.297E-06
            2577            2708     160.133E-06     152.069E-06
            2562            2708     160.133E-06     152.069E-06
            2578            2708     160.133E-06     152.069E-06
            2561            2708     160.133E-06     152.069E-06
            2563            2709     154.745E-06     158.027E-06
            2579            2709     154.745E-06     158.027E-06
            2562            2709     154.745E-06     158.027E-06
            2578            2709     154.745E-06     158.027E-06
            2563            2710     154.149E-06     161.366E-06
            2580            2710     154.149E-06     161.366E-06
            2579            2710     154.149E-06     161.366E-06
            2564            2710     154.149E-06     161.366E-06
            2581            2711     155.269E-06     164.282E-06
            2565            2711     155.269E-06     164.282E-06
            2564            2711     155.269E-06     164.282E-06
            2580            2711     155.269E-06     164.282E-06
            2581            2712     157.452E-06     167.777E-06
            2565            2712     157.452E-06     167.777E-06
            2582            2712     157.452E-06     167.777E-06
            2566            2712     157.452E-06     167.777E-06
            2566            2713     160.672E-06     171.802E-06
            2567            2713     160.672E-06     171.802E-06
            2583            2713     160.672E-06     171.802E-06
            2582            2713     160.672E-06     171.802E-06
            2583            2714     164.659E-06     176.654E-06
            2568            2714     164.659E-06     176.654E-06
            2567            2714     164.659E-06     176.654E-06
            2584            2714     164.659E-06     176.654E-06
            2569            2715     169.437E-06     182.067E-06
            2568            2715     169.437E-06     182.067E-06
            2585            2715     169.437E-06     182.067E-06
            2584            2715     169.437E-06     182.067E-06
            2569            2716     175.244E-06     188.270E-06
            2570            2716     175.244E-06     188.270E-06
            2586            2716     175.244E-06     188.270E-06
            2585            2716     175.244E-06     188.270E-06
            2587            2717     181.555E-06     195.153E-06
            2570            2717     181.555E-06     195.153E-06
            2571            2717     181.555E-06     195.153E-06
            2586            2717     181.555E-06     195.153E-06
            2571            2718     189.112E-06     202.717E-06
            2572            2718     189.112E-06     202.717E-06
            2587            2718     189.112E-06     202.717E-06
            2588            2718     189.112E-06     202.717E-06
            2573            2719     195.841E-06     210.514E-06
            2589            2719     195.841E-06     210.514E-06
            2588            2719     195.841E-06     210.514E-06
            2572            2719     195.841E-06     210.514E-06
            2589            2720     201.605E-06     216.703E-06
            2573            2720     201.605E-06     216.703E-06
            2574            2720     201.605E-06     216.703E-06
            2590            2720     201.605E-06     216.703E-06
            2575            2721     213.201E-06     225.068E-06
            2590            2721     213.201E-06     225.068E-06
            2574            2721     213.201E-06     225.068E-06
            2591            2721     213.201E-06     225.068E-06
            2575            2722     235.075E-06     239.089E-06
            2591            2722     235.075E-06     239.089E-06
            2592            2722     235.075E-06     239.089E-06
            2576            2722     235.075E-06     239.089E-06
            2577            2723     169.107E-06     151.604E-06
            2594            2723     169.107E-06     151.604E-06
            2593            2723     169.107E-06     151.604E-06
            2578            2723     169.107E-06     151.604E-06
            2579            2724     165.238E-06     160.188E-06
            2595            2724     165.238E-06     160.188E-06
            2594            2724     165.238E-06     160.188E-06
            2578            2724     165.238E-06     160.188E-06
            2595            2725     161.548E-06     165.673E-06
            2579            2725     161.548E-06     165.673E-06
            2580            2725     161.548E-06     165.673E-06
            2596            2725     161.548E-06     165.673E-06
            2597            2726     162.804E-06     167.304E-06
            2596            2726     162.804E-06     167.304E-06
            2581            2726     162.804E-06     167.304E-06
            2580            2726     162.804E-06     167.304E-06
            2582            2727     165.610E-06     169.709E-06
            2581            2727     165.610E-06     169.709E-06
            2597            2727     165.610E-06     169.709E-06
            2598            2727     165.610E-06     169.709E-06
            2583            2728     168.850E-06     173.183E-06
            2598            2728     168.850E-06     173.183E-06
            2582            2728     168.850E-06     173.183E-06
            2599            2728     168.850E-06     173.183E-06
            2600            2729     172.939E-06     177.196E-06
            2584            2729     172.939E-06     177.196E-06
            2599            2729     172.939E-06     177.196E-06
            2583            2729     172.939E-06     177.196E-06
            2585            2730     177.805E-06     182.147E-06
            2601            2730     177.805E-06     182.147E-06
            2600            2730     177.805E-06     182.147E-06
            2584            2730     177.805E-06     182.147E-06
            2585            2731     183.449E-06     187.921E-06
            2586            2731     183.449E-06     187.921E-06
            2601            2731     183.449E-06     187.921E-06
            2602            2731     183.449E-06     187.921E-06
            2587            2732     190.460E-06     194.715E-06
            2586            2732     190.460E-06     194.715E-06
            2602            2732     190.460E-06     194.715E-06
            2603            2732     190.460E-06     194.715E-06
            2603            2733     197.773E-06     202.505E-06
            2587            2733     197.773E-06     202.505E-06
            2604            2733     197.773E-06     202.505E-06
            2588            2733     197.773E-06     202.505E-06
            2605            2734     205.318E-06     209.528E-06
            2588            2734     205.318E-06     209.528E-06
            2604            2734     205.318E-06     209.528E-06
            2589            2734     205.318E-06     209.528E-06
            2590            2735     207.126E-06     213.238E-06
            2606            2735     207.126E-06     213.238E-06
            2589            2735     207.126E-06     213.238E-06
            2605            2735     207.126E-06     213.238E-06
            2607            2736     187.361E-06     197.818E-06
            2591            2736     187.361E-06     197.818E-06
            2590            2736     187.361E-06     197.818E-06
            2606            2736     187.361E-06     197.818E-06
            2591            2737     167.589E-06     174.439E-06
            2592            2737     167.589E-06     174.439E-06
            2607            2737     167.589E-06     174.439E-06
            2608            2737     167.589E-06     174.439E-06
            2594            2738     172.218E-06     165.277E-06
            2593            2738     172.218E-06     165.277E-06
            2609            2738     172.218E-06     165.277E-06
            2610            2738     172.218E-06     165.277E-06
            2611            2739     167.775E-06     168.909E-06
            2594            2739     167.775E-06     168.909E-06
            2610            2739     167.775E-06     168.909E-06
            2595            2739     167.775E-06     168.909E-06
            2611            2740     169.030E-06     169.044E-06
            2596            2740     169.030E-06     169.044E-06
            2595            2740     169.030E-06     169.044E-06
            2612            2740     169.030E-06     169.044E-06
            2613            2741     171.403E-06     170.118E-06
            2596            2741     171.403E-06     170.118E-06
            2612            2741     171.403E-06     170.118E-06
            2597            2741     171.403E-06     170.118E-06
            2598            2742     174.199E-06     172.050E-06
            2614            2742     174.199E-06     172.050E-06
            2613            2742     174.199E-06     172.050E-06
            2597            2742     174.199E-06     172.050E-06
            2599            2743     177.652E-06     174.522E-06
            2614            2743     177.652E-06     174.522E-06
            2598            2743     177.652E-06     174.522E-06
            2615            2743     177.652E-06     174.522E-06
            2615            2744     181.504E-06     177.805E-06
            2600            2744     181.504E-06     177.805E-06
            2616            2744     181.504E-06     177.805E-06
            2599            2744     181.504E-06     177.805E-06
            2617            2745     185.912E-06     181.595E-06
            2600            2745     185.912E-06     181.595E-06
            2616            2745     185.912E-06     181.595E-06
            2601            2745     185.912E-06     181.595E-06
            2602            2746     190.938E-06     186.120E-06
            2618            2746     190.938E-06     186.120E-06
            2601            2746     190.938E-06     186.120E-06
            2617            2746     190.938E-06     186.120E-06
            2602            2747     196.467E-06     191.239E-06
            2618            2747     196.467E-06     191.239E-06
            2603            2747     196.467E-06     191.239E-06
            2619            2747     196.467E-06     191.239E-06
            2620            2748     202.238E-06     196.465E-06
            2603            2748     202.238E-06     196.465E-06
            2619            2748     202.238E-06     196.465E-06
            2604            2748     202.238E-06     196.465E-06
            2621            2749     206.126E-06     200.093E-06
            2605            2749     206.126E-06     200.093E-06
            2620            2749     206.126E-06     200.093E-06
            2604            2749     206.126E-06     200.093E-06
            2622            2750     201.703E-06     196.261E-06
            2621            2750     201.703E-06     196.261E-06
            2606            2750     201.703E-06     196.261E-06
            2605            2750     201.703E-06     196.261E-06
            2623            2751     166.935E-06     167.823E-06
            2607            2751     166.935E-06     167.823E-06
            2622            2751     166.935E-06     167.823E-06
            2606            2751     166.935E-06     167.823E-06
            2607            2752     113.563E-06     114.121E-06
            2608            2752     113.563E-06     114.121E-06
            2624            2752     113.563E-06     114.121E-06
            2623            2752     113.563E-06     114.121E-06
            2625            2753     168.557E-06     180.470E-06
            2626            2753     168.557E-06     180.470E-06
            2610            2753     168.557E-06     180.470E-06
            2609            2753     168.557E-06     180.470E-06
            2610            2754     172.485E-06     175.259E-06
            2626            2754     172.485E-06     175.259E-06
            2627            2754     172.485E-06     175.259E-06
            2611            2754     172.485E-06     175.259E-06
            2628            2755     177.257E-06     172.538E-06
            2611            2755     177.257E-06     172.538E-06
            2612            2755     177.257E-06     172.538E-06
            2627            2755     177.257E-06     172.538E-06
            2613            2756     180.581E-06     173.287E-06
            2628            2756     180.581E-06     173.287E-06
            2629            2756     180.581E-06     173.287E-06
            2612            2756     180.581E-06     173.287E-06
            2613            2757     183.582E-06     174.641E-06
            2614            2757     183.582E-06     174.641E-06
            2629            2757     183.582E-06     174.641E-06
            2630            2757     183.582E-06     174.641E-06
            2615            2758     187.019E-06     176.382E-06
            2630            2758     187.019E-06     176.382E-06
            2614            2758     187.019E-06     176.382E-06
            2631            2758     187.019E-06     176.382E-06
            2616            2759     190.575E-06     178.616E-06
            2615            2759     190.575E-06     178.616E-06
            2631            2759     190.575E-06     178.616E-06
            2632            2759     190.575E-06     178.616E-06
            2633            2760     194.294E-06     181.119E-06
            2632            2760     194.294E-06     181.119E-06
            2616            2760     194.294E-06     181.119E-06
            2617            2760     194.294E-06     181.119E-06
            2618            2761     197.997E-06     183.661E-06
            2634            2761     197.997E-06     183.661E-06
            2617            2761     197.997E-06     183.661E-06
            2633            2761     197.997E-06     183.661E-06
            2619            2762     201.045E-06     185.877E-06
            2634            2762     201.045E-06     185.877E-06
            2618            2762     201.045E-06     185.877E-06
            2635            2762     201.045E-06     185.877E-06
            2635            2763     202.831E-06     186.367E-06
            2619            2763     202.831E-06     186.367E-06
            2620            2763     202.831E-06     186.367E-06
            2636            2763     202.831E-06     186.367E-06
            2637            2764     199.895E-06     182.870E-06
            2620            2764     199.895E-06     182.870E-06
            2636            2764     199.895E-06     182.870E-06
            2621            2764     199.895E-06     182.870E-06
            2638            2765     186.810E-06     168.364E-06
            2621            2765     186.810E-06     168.364E-06
            2637            2765     186.810E-06     168.364E-06
            2622            2765     186.810E-06     168.364E-06
            2623            2766     154.161E-06     134.267E-06
            2639            2766     154.161E-06     134.267E-06
            2638            2766     154.161E-06     134.267E-06
            2622            2766     154.161E-06     134.267E-06
            2640            2767     87.9607E-06     94.1629E-06
            2639            2767     87.9607E-06     94.1629E-06
            2623            2767     87.9607E-06     94.1629E-06
            2624            2767     87.9607E-06     94.1629E-06
            3028            3027     149.583E-03     181.636E-03
            3027            3027     149.583E-03     181.636E-03
            3012            3027     149.583E-03     181.636E-03
            3011            3027     149.583E-03     181.636E-03
            3029            3028     165.951E-03     216.847E-03
            3028            3028     165.951E-03     216.847E-03
            3012            3028     165.951E-03     216.847E-03
            3013            3028     165.951E-03     216.847E-03
            3014            3029     203.875E-03     263.425E-03
            3029            3029     203.875E-03     263.425E-03
            3013            3029     203.875E-03     263.425E-03
            3030            3029     203.875E-03     263.425E-03
            3031            3030     251.966E-03     315.874E-03
            3014            3030     251.966E-03     315.874E-03
            3030            3030     251.966E-03     315.874E-03
            3015            3030     251.966E-03     315.874E-03
            3016            3031     304.090E-03     369.949E-03
            3031            3031     304.090E-03     369.949E-03
            3032            3031     304.090E-03     369.949E-03
            3015            3031     304.090E-03     369.949E-03
            3032            3032     358.129E-03     425.519E-03
            3033            3032     358.129E-03     425.519E-03
            3017            3032     358.129E-03     425.519E-03
            3016            3032     358.129E-03     425.519E-03
            3034            3033     413.699E-03     481.706E-03
            3018            3033     413.699E-03     481.706E-03
            3017            3033     413.699E-03     481.706E-03
            3033            3033     413.699E-03     481.706E-03
            3018            3034     469.915E-03     538.783E-03
            3035            3034     469.915E-03     538.783E-03
            3019            3034     469.915E-03     538.783E-03
            3034            3034     469.915E-03     538.783E-03
            3036            3035     526.966E-03     595.874E-03
            3019            3035     526.966E-03     595.874E-03
            3020            3035     526.966E-03     595.874E-03
            3035            3035     526.966E-03     595.874E-03
            3020            3036     584.246E-03     653.843E-03
            3036            3036     584.246E-03     653.843E-03
            3021            3036     584.246E-03     653.843E-03
            3037            3036     584.246E-03     653.843E-03
            3038            3037     642.047E-03     711.351E-03
            3037            3037     642.047E-03     711.351E-03
            3022            3037     642.047E-03     711.351E-03
            3021            3037     642.047E-03     711.351E-03
            3039            3038     700.633E-03     770.176E-03
            3023            3038     700.633E-03     770.176E-03
            3022            3038     700.633E-03     770.176E-03
            3038            3038     700.633E-03     770.176E-03
            3023            3039     757.080E-03     827.496E-03
            3040            3039     757.080E-03     827.496E-03
            3039            3039     757.080E-03     827.496E-03
            3024            3039     757.080E-03     827.496E-03
            3025            3040     818.813E-03     888.544E-03
            3040            3040     818.813E-03     888.544E-03
            3024            3040     818.813E-03     888.544E-03
            3041            3040     818.813E-03     888.544E-03
            3041            3041     930.089E-03     991.800E-03
            3026            3041     930.089E-03     991.800E-03
            3025            3041     930.089E-03     991.800E-03
            3042            3041     930.089E-03     991.800E-03
            3027            3042     198.992E-03     191.501E-03
            3043            3042     198.992E-03     191.501E-03
            3044            3042     198.992E-03     191.501E-03
            3028            3042     198.992E-03     191.501E-03
            3045            3043     227.660E-03     207.843E-03
            3044            3043     227.660E-03     207.843E-03
            3029            3043     227.660E-03     207.843E-03
            3028            3043     227.660E-03     207.843E-03
            3029            3044     269.445E-03     242.939E-03
            3030            3044     269.445E-03     242.939E-03
            3045            3044     269.445E-03     242.939E-03
            3046            3044     269.445E-03     242.939E-03
            3030            3045     317.263E-03     288.121E-03
            3031            3045     317.263E-03     288.121E-03
            3046            3045     317.263E-03     288.121E-03
            3047            3045     317.263E-03     288.121E-03
            3048            3046     368.558E-03     337.135E-03
            3047            3046     368.558E-03     337.135E-03
            3031            3046     368.558E-03     337.135E-03
            3032            3046     368.558E-03     337.135E-03
            3049            3047     421.998E-03     388.952E-03
            3048            3047     421.998E-03     388.952E-03
            3032            3047     421.998E-03     388.952E-03
            3033            3047     421.998E-03     388.952E-03
            3033            3048     476.566E-03     442.688E-03
            3034            3048     476.566E-03     442.688E-03
            3049            3048     476.566E-03     442.688E-03
            3050            3048     476.566E-03     442.688E-03
            3034            3049     532.240E-03     497.429E-03
            3051            3049     532.240E-03     497.429E-03
            3050            3049     532.240E-03     497.429E-03
            3035            3049     532.240E-03     497.429E-03
            3035            3050     588.217E-03     553.181E-03
            3036            3050     588.217E-03     553.181E-03
            3052            3050     588.217E-03     553.181E-03
            3051            3050     588.217E-03     553.181E-03
            3037            3051     644.956E-03     609.135E-03
            3036            3051     644.956E-03     609.135E-03
            3052            3051     644.956E-03     609.135E-03
            3053            3051     644.956E-03     609.135E-03
            3054            3052     701.215E-03     665.519E-03
            3053            3052     701.215E-03     665.519E-03
            3037            3052     701.215E-03     665.519E-03
            3038            3052     701.215E-03     665.519E-03
            3038            3053     758.069E-03     721.328E-03
            3054            3053     758.069E-03     721.328E-03
            3039            3053     758.069E-03     721.328E-03
            3055            3053     758.069E-03     721.328E-03
            3040            3054     815.005E-03     779.114E-03
            3056            3054     815.005E-03     779.114E-03
            3039            3054     815.005E-03     779.114E-03
            3055            3054     815.005E-03     779.114E-03
            3040            3055     875.776E-03     839.550E-03
            3056            3055     875.776E-03     839.550E-03
            3041            3055     875.776E-03     839.550E-03
            3057            3055     875.776E-03     839.550E-03
            3058            3056     879.052E-03     833.666E-03
            3042            3056     879.052E-03     833.666E-03
            3041            3056     879.052E-03     833.666E-03
            3057            3056     879.052E-03     833.666E-03
            3044            3057     165.465E-03     175.211E-03
            3060            3057     165.465E-03     175.211E-03
            3059            3057     165.465E-03     175.211E-03
            3043            3057     165.465E-03     175.211E-03
            3045            3058     193.615E-03     186.264E-03
            3061            3058     193.615E-03     186.264E-03
            3044            3058     193.615E-03     186.264E-03
            3060            3058     193.615E-03     186.264E-03
            3045            3059     220.598E-03     208.202E-03
            3061            3059     220.598E-03     208.202E-03
            3046            3059     220.598E-03     208.202E-03
            3062            3059     220.598E-03     208.202E-03
            3046            3060     251.570E-03     238.941E-03
            3063            3060     251.570E-03     238.941E-03
            3047            3060     251.570E-03     238.941E-03
            3062            3060     251.570E-03     238.941E-03
            3063            3061     285.903E-03     273.365E-03
            3047            3061     285.903E-03     273.365E-03
            3064            3061     285.903E-03     273.365E-03
            3048            3061     285.903E-03     273.365E-03
            3049            3062     322.824E-03     310.405E-03
            3064            3062     322.824E-03     310.405E-03
            3065            3062     322.824E-03     310.405E-03
            3048            3062     322.824E-03     310.405E-03
            3049            3063     361.123E-03     348.932E-03
            3065            3063     361.123E-03     348.932E-03
            3066            3063     361.123E-03     348.932E-03
            3050            3063     361.123E-03     348.932E-03
            3050            3064     400.617E-03     388.253E-03
            3066            3064     400.617E-03     388.253E-03
            3051            3064     400.617E-03     388.253E-03
            3067            3064     400.617E-03     388.253E-03
            3068            3065     440.558E-03     428.384E-03
            3052            3065     440.558E-03     428.384E-03
            3051            3065     440.558E-03     428.384E-03
            3067            3065     440.558E-03     428.384E-03
            3069            3066     481.000E-03     468.521E-03
            3068            3066     481.000E-03     468.521E-03
            3053            3066     481.000E-03     468.521E-03
            3052            3066     481.000E-03     468.521E-03
            3070            3067     522.526E-03     510.122E-03
            3053            3067     522.526E-03     510.122E-03
            3054            3067     522.526E-03     510.122E-03
            3069            3067     522.526E-03     510.122E-03
            3054            3068     565.865E-03     553.313E-03
            3055            3068     565.865E-03     553.313E-03
            3071            3068     565.865E-03     553.313E-03
            3070            3068     565.865E-03     553.313E-03
            3072            3069     621.186E-03     607.438E-03
            3071            3069     621.186E-03     607.438E-03
            3055            3069     621.186E-03     607.438E-03
            3056            3069     621.186E-03     607.438E-03
            3057            3070     685.598E-03     677.206E-03
            3072            3070     685.598E-03     677.206E-03
            3056            3070     685.598E-03     677.206E-03
            3073            3070     685.598E-03     677.206E-03
            3058            3071     760.977E-03     777.328E-03
            3074            3071     760.977E-03     777.328E-03
            3073            3071     760.977E-03     777.328E-03
            3057            3071     760.977E-03     777.328E-03
            3075            3072     135.840E-03     159.157E-03
            3076            3072     135.840E-03     159.157E-03
            3060            3072     135.840E-03     159.157E-03
            3059            3072     135.840E-03     159.157E-03
            3077            3073     138.644E-03     166.706E-03
            3061            3073     138.644E-03     166.706E-03
            3076            3073     138.644E-03     166.706E-03
            3060            3073     138.644E-03     166.706E-03
            3061            3074     149.242E-03     182.330E-03
            3077            3074     149.242E-03     182.330E-03
            3078            3074     149.242E-03     182.330E-03
            3062            3074     149.242E-03     182.330E-03
            3062            3075     163.333E-03     202.564E-03
            3079            3075     163.333E-03     202.564E-03
            3078            3075     163.333E-03     202.564E-03
            3063            3075     163.333E-03     202.564E-03
            3064            3076     181.031E-03     225.194E-03
            3079            3076     181.031E-03     225.194E-03
            3080            3076     181.031E-03     225.194E-03
            3063            3076     181.031E-03     225.194E-03
            3080            3077     201.639E-03     249.164E-03
            3081            3077     201.639E-03     249.164E-03
            3065            3077     201.639E-03     249.164E-03
            3064            3077     201.639E-03     249.164E-03
            3065            3078     224.195E-03     273.884E-03
            3081            3078     224.195E-03     273.884E-03
            3082            3078     224.195E-03     273.884E-03
            3066            3078     224.195E-03     273.884E-03
            3082            3079     247.965E-03     299.271E-03
            3067            3079     247.965E-03     299.271E-03
            3066            3079     247.965E-03     299.271E-03
            3083            3079     247.965E-03     299.271E-03
            3067            3080     272.357E-03     324.715E-03
            3068            3080     272.357E-03     324.715E-03
            3083            3080     272.357E-03     324.715E-03
            3084            3080     272.357E-03     324.715E-03
            3068            3081     297.795E-03     351.029E-03
            3084            3081     297.795E-03     351.029E-03
            3085            3081     297.795E-03     351.029E-03
            3069            3081     297.795E-03     351.029E-03
            3085            3082     324.281E-03     378.347E-03
            3086            3082     324.281E-03     378.347E-03
            3069            3082     324.281E-03     378.347E-03
            3070            3082     324.281E-03     378.347E-03
            3071            3083     357.872E-03     412.237E-03
            3086            3083     357.872E-03     412.237E-03
            3070            3083     357.872E-03     412.237E-03
            3087            3083     357.872E-03     412.237E-03
            3088            3084     404.324E-03     459.647E-03
            3071            3084     404.324E-03     459.647E-03
            3072            3084     404.324E-03     459.647E-03
            3087            3084     404.324E-03     459.647E-03
            3073            3085     495.226E-03     551.512E-03
            3072            3085     495.226E-03     551.512E-03
            3088            3085     495.226E-03     551.512E-03
            3089            3085     495.226E-03     551.512E-03
            3073            3086     698.328E-03     745.899E-03
            3090            3086     698.328E-03     745.899E-03
            3089            3086     698.328E-03     745.899E-03
            3074            3086     698.328E-03     745.899E-03
            3075            3087     168.550E-03     160.551E-03
            3076            3087     168.550E-03     160.551E-03
            3092            3087     168.550E-03     160.551E-03
            3091            3087     168.550E-03     160.551E-03
            3077            3088     162.857E-03     173.436E-03
            3093            3088     162.857E-03     173.436E-03
            3092            3088     162.857E-03     173.436E-03
            3076            3088     162.857E-03     173.436E-03
            3077            3089     169.448E-03     188.296E-03
            3094            3089     169.448E-03     188.296E-03
            3078            3089     169.448E-03     188.296E-03
            3093            3089     169.448E-03     188.296E-03
            3094            3090     183.195E-03     206.963E-03
            3095            3090     183.195E-03     206.963E-03
            3078            3090     183.195E-03     206.963E-03
            3079            3090     183.195E-03     206.963E-03
            3095            3091     200.543E-03     228.177E-03
            3079            3091     200.543E-03     228.177E-03
            3096            3091     200.543E-03     228.177E-03
            3080            3091     200.543E-03     228.177E-03
            3081            3092     221.140E-03     250.971E-03
            3096            3092     221.140E-03     250.971E-03
            3080            3092     221.140E-03     250.971E-03
            3097            3092     221.140E-03     250.971E-03
            3097            3093     243.778E-03     275.291E-03
            3098            3093     243.778E-03     275.291E-03
            3082            3093     243.778E-03     275.291E-03
            3081            3093     243.778E-03     275.291E-03
            3099            3094     267.779E-03     300.491E-03
            3098            3094     267.779E-03     300.491E-03
            3083            3094     267.779E-03     300.491E-03
            3082            3094     267.779E-03     300.491E-03
            3099            3095     292.978E-03     326.659E-03
            3100            3095     292.978E-03     326.659E-03
            3083            3095     292.978E-03     326.659E-03
            3084            3095     292.978E-03     326.659E-03
            3100            3096     318.830E-03     353.538E-03
            3084            3096     318.830E-03     353.538E-03
            3101            3096     318.830E-03     353.538E-03
            3085            3096     318.830E-03     353.538E-03
            3085            3097     346.453E-03     382.100E-03
            3086            3097     346.453E-03     382.100E-03
            3102            3097     346.453E-03     382.100E-03
            3101            3097     346.453E-03     382.100E-03
            3103            3098     376.368E-03     413.653E-03
            3086            3098     376.368E-03     413.653E-03
            3102            3098     376.368E-03     413.653E-03
            3087            3098     376.368E-03     413.653E-03
            3087            3099     418.126E-03     454.088E-03
            3103            3099     418.126E-03     454.088E-03
            3104            3099     418.126E-03     454.088E-03
            3088            3099     418.126E-03     454.088E-03
            3105            3100     503.352E-03     528.055E-03
            3088            3100     503.352E-03     528.055E-03
            3089            3100     503.352E-03     528.055E-03
            3104            3100     503.352E-03     528.055E-03
            3106            3101     640.725E-03     644.278E-03
            3105            3101     640.725E-03     644.278E-03
            3090            3101     640.725E-03     644.278E-03
            3089            3101     640.725E-03     644.278E-03
            3107            3102     188.187E-03     170.932E-03
            3091            3102     188.187E-03     170.932E-03
            3092            3102     188.187E-03     170.932E-03
            3108            3102     188.187E-03     170.932E-03
            3108            3103     186.026E-03     180.281E-03
            3109            3103     186.026E-03     180.281E-03
            3092            3103     186.026E-03     180.281E-03
            3093            3103     186.026E-03     180.281E-03
            3110            3104     189.833E-03     196.107E-03
            3109            3104     189.833E-03     196.107E-03
            3093            3104     189.833E-03     196.107E-03
            3094            3104     189.833E-03     196.107E-03
            3111            3105     201.718E-03     212.858E-03
            3110            3105     201.718E-03     212.858E-03
            3094            3105     201.718E-03     212.858E-03
            3095            3105     201.718E-03     212.858E-03
            3112            3106     219.273E-03     231.686E-03
            3111            3106     219.273E-03     231.686E-03
            3095            3106     219.273E-03     231.686E-03
            3096            3106     219.273E-03     231.686E-03
            3112            3107     239.581E-03     253.146E-03
            3096            3107     239.581E-03     253.146E-03
            3113            3107     239.581E-03     253.146E-03
            3097            3107     239.581E-03     253.146E-03
            3097            3108     262.017E-03     276.397E-03
            3113            3108     262.017E-03     276.397E-03
            3098            3108     262.017E-03     276.397E-03
            3114            3108     262.017E-03     276.397E-03
            3114            3109     286.258E-03     301.305E-03
            3099            3109     286.258E-03     301.305E-03
            3115            3109     286.258E-03     301.305E-03
            3098            3109     286.258E-03     301.305E-03
            3099            3110     311.958E-03     327.717E-03
            3115            3110     311.958E-03     327.717E-03
            3116            3110     311.958E-03     327.717E-03
            3100            3110     311.958E-03     327.717E-03
            3101            3111     338.890E-03     355.329E-03
            3116            3111     338.890E-03     355.329E-03
            3100            3111     338.890E-03     355.329E-03
            3117            3111     338.890E-03     355.329E-03
            3117            3112     366.848E-03     384.400E-03
            3102            3112     366.848E-03     384.400E-03
            3118            3112     366.848E-03     384.400E-03
            3101            3112     366.848E-03     384.400E-03
            3102            3113     393.529E-03     412.806E-03
            3118            3113     393.529E-03     412.806E-03
            3119            3113     393.529E-03     412.806E-03
            3103            3113     393.529E-03     412.806E-03
            3103            3114     422.871E-03     442.030E-03
            3104            3114     422.871E-03     442.030E-03
            3120            3114     422.871E-03     442.030E-03
            3119            3114     422.871E-03     442.030E-03
            3121            3115     460.700E-03     474.775E-03
            3104            3115     460.700E-03     474.775E-03
            3105            3115     460.700E-03     474.775E-03
            3120            3115     460.700E-03     474.775E-03
            3106            3116     530.255E-03     543.092E-03
            3122            3116     530.255E-03     543.092E-03
            3121            3116     530.255E-03     543.092E-03
            3105            3116     530.255E-03     543.092E-03
            3124            3117     204.094E-03     186.087E-03
            3107            3117     204.094E-03     186.087E-03
            3123            3117     204.094E-03     186.087E-03
            3108            3117     204.094E-03     186.087E-03
            3124            3118     202.139E-03     195.024E-03
            3108            3118     202.139E-03     195.024E-03
            3109            3118     202.139E-03     195.024E-03
            3125            3118     202.139E-03     195.024E-03
            3110            3119     207.194E-03     206.374E-03
            3125            3119     207.194E-03     206.374E-03
            3109            3119     207.194E-03     206.374E-03
            3126            3119     207.194E-03     206.374E-03
            3110            3120     220.093E-03     219.464E-03
            3127            3120     220.093E-03     219.464E-03
            3111            3120     220.093E-03     219.464E-03
            3126            3120     220.093E-03     219.464E-03
            3128            3121     237.303E-03     235.989E-03
            3127            3121     237.303E-03     235.989E-03
            3111            3121     237.303E-03     235.989E-03
            3112            3121     237.303E-03     235.989E-03
            3112            3122     256.917E-03     255.277E-03
            3128            3122     256.917E-03     255.277E-03
            3113            3122     256.917E-03     255.277E-03
            3129            3122     256.917E-03     255.277E-03
            3114            3123     278.608E-03     276.777E-03
            3129            3123     278.608E-03     276.777E-03
            3130            3123     278.608E-03     276.777E-03
            3113            3123     278.608E-03     276.777E-03
            3114            3124     302.126E-03     300.251E-03
            3130            3124     302.126E-03     300.251E-03
            3115            3124     302.126E-03     300.251E-03
            3131            3124     302.126E-03     300.251E-03
            3115            3125     327.195E-03     325.326E-03
            3132            3125     327.195E-03     325.326E-03
            3116            3125     327.195E-03     325.326E-03
            3131            3125     327.195E-03     325.326E-03
            3133            3126     353.844E-03     352.089E-03
            3116            3126     353.844E-03     352.089E-03
            3117            3126     353.844E-03     352.089E-03
            3132            3126     353.844E-03     352.089E-03
            3117            3127     379.420E-03     378.412E-03
            3133            3127     379.420E-03     378.412E-03
            3118            3127     379.420E-03     378.412E-03
            3134            3127     379.420E-03     378.412E-03
            3118            3128     403.411E-03     402.903E-03
            3134            3128     403.411E-03     402.903E-03
            3119            3128     403.411E-03     402.903E-03
            3135            3128     403.411E-03     402.903E-03
            3119            3129     409.737E-03     414.847E-03
            3120            3129     409.737E-03     414.847E-03
            3135            3129     409.737E-03     414.847E-03
            3136            3129     409.737E-03     414.847E-03
            3120            3130     394.768E-03     406.430E-03
            3137            3130     394.768E-03     406.430E-03
            3121            3130     394.768E-03     406.430E-03
            3136            3130     394.768E-03     406.430E-03
            3137            3131     426.776E-03     426.995E-03
            3138            3131     426.776E-03     426.995E-03
            3122            3131     426.776E-03     426.995E-03
            3121            3131     426.776E-03     426.995E-03
            3124            3132     216.268E-03     210.876E-03
            3140            3132     216.268E-03     210.876E-03
            3123            3132     216.268E-03     210.876E-03
            3139            3132     216.268E-03     210.876E-03
            3140            3133     212.957E-03     214.395E-03
            3124            3133     212.957E-03     214.395E-03
            3125            3133     212.957E-03     214.395E-03
            3141            3133     212.957E-03     214.395E-03
            3126            3134     223.625E-03     217.570E-03
            3141            3134     223.625E-03     217.570E-03
            3125            3134     223.625E-03     217.570E-03
            3142            3134     223.625E-03     217.570E-03
            3127            3135     238.659E-03     227.122E-03
            3126            3135     238.659E-03     227.122E-03
            3143            3135     238.659E-03     227.122E-03
            3142            3135     238.659E-03     227.122E-03
            3143            3136     254.947E-03     241.171E-03
            3127            3136     254.947E-03     241.171E-03
            3128            3136     254.947E-03     241.171E-03
            3144            3136     254.947E-03     241.171E-03
            3128            3137     273.433E-03     257.725E-03
            3144            3137     273.433E-03     257.725E-03
            3129            3137     273.433E-03     257.725E-03
            3145            3137     273.433E-03     257.725E-03
            3145            3138     293.555E-03     276.510E-03
            3129            3138     293.555E-03     276.510E-03
            3130            3138     293.555E-03     276.510E-03
            3146            3138     293.555E-03     276.510E-03
            3131            3139     315.060E-03     296.910E-03
            3146            3139     315.060E-03     296.910E-03
            3147            3139     315.060E-03     296.910E-03
            3130            3139     315.060E-03     296.910E-03
            3132            3140     337.878E-03     318.709E-03
            3147            3140     337.878E-03     318.709E-03
            3131            3140     337.878E-03     318.709E-03
            3148            3140     337.878E-03     318.709E-03
            3149            3141     360.755E-03     340.805E-03
            3133            3141     360.755E-03     340.805E-03
            3148            3141     360.755E-03     340.805E-03
            3132            3141     360.755E-03     340.805E-03
            3134            3142     382.806E-03     361.931E-03
            3149            3142     382.806E-03     361.931E-03
            3133            3142     382.806E-03     361.931E-03
            3150            3142     382.806E-03     361.931E-03
            3135            3143     396.835E-03     376.406E-03
            3150            3143     396.835E-03     376.406E-03
            3151            3143     396.835E-03     376.406E-03
            3134            3143     396.835E-03     376.406E-03
            3135            3144     392.854E-03     375.143E-03
            3151            3144     392.854E-03     375.143E-03
            3152            3144     392.854E-03     375.143E-03
            3136            3144     392.854E-03     375.143E-03
            3136            3145     343.199E-03     334.895E-03
            3153            3145     343.199E-03     334.895E-03
            3137            3145     343.199E-03     334.895E-03
            3152            3145     343.199E-03     334.895E-03
            3138            3146     322.295E-03     317.593E-03
            3153            3146     322.295E-03     317.593E-03
            3137            3146     322.295E-03     317.593E-03
            3154            3146     322.295E-03     317.593E-03
            3139            3147     218.784E-03     238.363E-03
            3140            3147     218.784E-03     238.363E-03
            3155            3147     218.784E-03     238.363E-03
            3156            3147     218.784E-03     238.363E-03
            3157            3148     228.803E-03     227.930E-03
            3140            3148     228.803E-03     227.930E-03
            3156            3148     228.803E-03     227.930E-03
            3141            3148     228.803E-03     227.930E-03
            3157            3149     242.987E-03     228.706E-03
            3141            3149     242.987E-03     228.706E-03
            3158            3149     242.987E-03     228.706E-03
            3142            3149     242.987E-03     228.706E-03
            3158            3150     257.135E-03     236.504E-03
            3142            3150     257.135E-03     236.504E-03
            3143            3150     257.135E-03     236.504E-03
            3159            3150     257.135E-03     236.504E-03
            3144            3151     272.657E-03     247.706E-03
            3159            3151     272.657E-03     247.706E-03
            3143            3151     272.657E-03     247.706E-03
            3160            3151     272.657E-03     247.706E-03
            3145            3152     289.653E-03     261.406E-03
            3160            3152     289.653E-03     261.406E-03
            3161            3152     289.653E-03     261.406E-03
            3144            3152     289.653E-03     261.406E-03
            3145            3153     307.655E-03     276.689E-03
            3161            3153     307.655E-03     276.689E-03
            3162            3153     307.655E-03     276.689E-03
            3146            3153     307.655E-03     276.689E-03
            3146            3154     326.413E-03     292.932E-03
            3162            3154     326.413E-03     292.932E-03
            3163            3154     326.413E-03     292.932E-03
            3147            3154     326.413E-03     292.932E-03
            3163            3155     344.879E-03     309.310E-03
            3147            3155     344.879E-03     309.310E-03
            3148            3155     344.879E-03     309.310E-03
            3164            3155     344.879E-03     309.310E-03
            3164            3156     362.104E-03     324.102E-03
            3148            3156     362.104E-03     324.102E-03
            3149            3156     362.104E-03     324.102E-03
            3165            3156     362.104E-03     324.102E-03
            3149            3157     375.237E-03     335.063E-03
            3165            3157     375.237E-03     335.063E-03
            3166            3157     375.237E-03     335.063E-03
            3150            3157     375.237E-03     335.063E-03
            3167            3158     378.656E-03     335.945E-03
            3166            3158     378.656E-03     335.945E-03
            3150            3158     378.656E-03     335.945E-03
            3151            3158     378.656E-03     335.945E-03
            3152            3159     364.848E-03     318.577E-03
            3167            3159     364.848E-03     318.577E-03
            3168            3159     364.848E-03     318.577E-03
            3151            3159     364.848E-03     318.577E-03
            3153            3160     309.428E-03     264.154E-03
            3168            3160     309.428E-03     264.154E-03
            3152            3160     309.428E-03     264.154E-03
            3169            3160     309.428E-03     264.154E-03
            3169            3161     249.484E-03     238.969E-03
            3170            3161     249.484E-03     238.969E-03
            3153            3161     249.484E-03     238.969E-03
            3154            3161     249.484E-03     238.969E-03
            3172            3162     122.353E-03     136.759E-03
            3171            3162     122.353E-03     136.759E-03
            3155            3162     122.353E-03     136.759E-03
            3156            3162     122.353E-03     136.759E-03
            3157            3163     133.241E-03     130.556E-03
            3173            3163     133.241E-03     130.556E-03
            3156            3163     133.241E-03     130.556E-03
            3172            3163     133.241E-03     130.556E-03
            3174            3164     140.016E-03     131.497E-03
            3158            3164     140.016E-03     131.497E-03
            3173            3164     140.016E-03     131.497E-03
            3157            3164     140.016E-03     131.497E-03
            3158            3165     147.441E-03     136.014E-03
            3174            3165     147.441E-03     136.014E-03
            3159            3165     147.441E-03     136.014E-03
            3175            3165     147.441E-03     136.014E-03
            3176            3166     155.698E-03     141.661E-03
            3175            3166     155.698E-03     141.661E-03
            3159            3166     155.698E-03     141.661E-03
            3160            3166     155.698E-03     141.661E-03
            3161            3167     164.810E-03     148.718E-03
            3160            3167     164.810E-03     148.718E-03
            3177            3167     164.810E-03     148.718E-03
            3176            3167     164.810E-03     148.718E-03
            3162            3168     174.349E-03     156.539E-03
            3161            3168     174.349E-03     156.539E-03
            3177            3168     174.349E-03     156.539E-03
            3178            3168     174.349E-03     156.539E-03
            3179            3169     184.108E-03     164.648E-03
            3178            3169     184.108E-03     164.648E-03
            3162            3169     184.108E-03     164.648E-03
            3163            3169     184.108E-03     164.648E-03
            3163            3170     193.390E-03     172.503E-03
            3164            3170     193.390E-03     172.503E-03
            3180            3170     193.390E-03     172.503E-03
            3179            3170     193.390E-03     172.503E-03
            3165            3171     201.625E-03     179.210E-03
            3164            3171     201.625E-03     179.210E-03
            3180            3171     201.625E-03     179.210E-03
            3181            3171     201.625E-03     179.210E-03
            3166            3172     206.620E-03     182.597E-03
            3165            3172     206.620E-03     182.597E-03
            3182            3172     206.620E-03     182.597E-03
            3181            3172     206.620E-03     182.597E-03
            3167            3173     207.474E-03     181.149E-03
            3182            3173     207.474E-03     181.149E-03
            3166            3173     207.474E-03     181.149E-03
            3183            3173     207.474E-03     181.149E-03
            3167            3174     197.391E-03     168.173E-03
            3183            3174     197.391E-03     168.173E-03
            3168            3174     197.391E-03     168.173E-03
            3184            3174     197.391E-03     168.173E-03
            3168            3175     175.025E-03     141.541E-03
            3169            3175     175.025E-03     141.541E-03
            3184            3175     175.025E-03     141.541E-03
            3185            3175     175.025E-03     141.541E-03
            3186            3176     141.702E-03     135.050E-03
            3170            3176     141.702E-03     135.050E-03
            3185            3176     141.702E-03     135.050E-03
            3169            3176     141.702E-03     135.050E-03


  Minimum                            44.7854E-06     76.6045E-06
      At Element                            2640            2640
            Node                             566             566

  Maximum                                1.60213         1.67516
      At Element                            1073            1768
            Node                             317              16

           Total                     1.53697E+03     1.58723E+03


Field Output reported at element nodes for region: CRJ700-1.Region_4
   Computation algorithm: EXTRAPOLATE_COMPUTE_AVERAGE
   Averaged at nodes
   Averaging regions: ODB_REGIONS

   Element Label      Node Label         S.Mises         S.Mises
                                          @Loc 1          @Loc 2
-----------------------------------------------------------------
            1089               1     3.14192E-03     3.54779E-03
             545               1     3.14192E-03     3.54779E-03
            1688               4     48.2183E-03     68.8970E-03
            1617               4     48.2183E-03     68.8970E-03
            1074               5     10.0777E-03     10.3961E-03
             560               5     10.0777E-03     10.3961E-03
             640               6     47.6443E-06     102.842E-06
             625               7     155.127E-06     191.663E-06
            1673              11         1.37360         1.42569
            1602              11         1.37360         1.42569
            2656              18     117.696E-03     118.088E-03
            1752              18     117.696E-03     118.088E-03
            1737              20         1.57892         1.69091
            2641              20         1.57892         1.69091
            2720              22     172.768E-03     174.782E-03
            2384              22     172.768E-03     174.782E-03
            2369              23         1.04847         1.09797
            2705              23         1.04847         1.09797
            2529              26     21.0522E-03     21.6223E-03
            2915              26     21.0522E-03     21.6223E-03
            2544              30     2.56094E-03     3.57682E-03
            2930              30     2.56094E-03     3.57682E-03
            3010              32     154.843E-06     191.321E-06
            2995              34     47.4694E-06     102.847E-06
            1601              99     35.4472E-03     74.7468E-03
            1617              99     35.4472E-03     74.7468E-03
            1585             100     39.3736E-03     80.0223E-03
            1601             100     39.3736E-03     80.0223E-03
            1585             101     86.1099E-03     92.2362E-03
            1569             101     86.1099E-03     92.2362E-03
            1553             102     134.216E-03     145.656E-03
            1569             102     134.216E-03     145.656E-03
            1537             103     169.010E-03     206.178E-03
            1553             103     169.010E-03     206.178E-03
            1537             104     110.326E-03     140.007E-03
            1521             104     110.326E-03     140.007E-03
            1505             105     26.4358E-03     58.1415E-03
            1521             105     26.4358E-03     58.1415E-03
            1489             106     34.4035E-03     57.3231E-03
            1505             106     34.4035E-03     57.3231E-03
            1473             107     69.0176E-03     77.1340E-03
            1489             107     69.0176E-03     77.1340E-03
            1457             108     104.170E-03     104.343E-03
            1473             108     104.170E-03     104.343E-03
            1457             109     141.993E-03     149.331E-03
            1441             109     141.993E-03     149.331E-03
            1441             110     166.500E-03     199.465E-03
            1425             110     166.500E-03     199.465E-03
            1425             111     94.2627E-03     123.693E-03
            1409             111     94.2627E-03     123.693E-03
            1409             112     22.4867E-03     38.6625E-03
            1393             112     22.4867E-03     38.6625E-03
            1393             113     45.5704E-03     49.1287E-03
            1377             113     45.5704E-03     49.1287E-03
            1361             114     72.0347E-03     71.7682E-03
            1377             114     72.0347E-03     71.7682E-03
            1345             115     97.7191E-03     93.2202E-03
            1361             115     97.7191E-03     93.2202E-03
            1345             116     124.868E-03     126.911E-03
            1329             116     124.868E-03     126.911E-03
            1329             117     140.320E-03     165.528E-03
            1313             117     140.320E-03     165.528E-03
            1313             118     85.9095E-03     109.409E-03
            1297             118     85.9095E-03     109.409E-03
            1281             119     42.2820E-03     45.0817E-03
            1297             119     42.2820E-03     45.0817E-03
            1281             120     63.8523E-03     58.0073E-03
            1265             120     63.8523E-03     58.0073E-03
            1249             121     81.3794E-03     72.1520E-03
            1265             121     81.3794E-03     72.1520E-03
            1249             122     99.2005E-03     94.9514E-03
            1233             122     99.2005E-03     94.9514E-03
            1233             123     107.222E-03     122.219E-03
            1217             123     107.222E-03     122.219E-03
            1217             124     78.8762E-03     96.5865E-03
            1201             124     78.8762E-03     96.5865E-03
            1185             125     59.3038E-03     64.7320E-03
            1201             125     59.3038E-03     64.7320E-03
            1185             126     72.9027E-03     64.2186E-03
            1169             126     72.9027E-03     64.2186E-03
            1153             127     79.6055E-03     70.7587E-03
            1169             127     79.6055E-03     70.7587E-03
            1137             128     86.3468E-03     76.8815E-03
            1153             128     86.3468E-03     76.8815E-03
            1137             129     93.5270E-03     87.4503E-03
            1121             129     93.5270E-03     87.4503E-03
            1121             130     91.9815E-03     103.895E-03
            1105             130     91.9815E-03     103.895E-03
            1105             131     47.0960E-03     57.2217E-03
            1089             131     47.0960E-03     57.2217E-03
             546             132     3.20752E-03     3.61638E-03
            1088             132     3.20752E-03     3.61638E-03
             545             132     3.20752E-03     3.61638E-03
            1089             132     3.20752E-03     3.61638E-03
             546             133     3.38795E-03     3.80129E-03
            1087             133     3.38795E-03     3.80129E-03
             547             133     3.38795E-03     3.80129E-03
            1088             133     3.38795E-03     3.80129E-03
            1087             134     3.65910E-03     4.07268E-03
             547             134     3.65910E-03     4.07268E-03
            1086             134     3.65910E-03     4.07268E-03
             548             134     3.65910E-03     4.07268E-03
            1086             135     4.00549E-03     4.41304E-03
             549             135     4.00549E-03     4.41304E-03
            1085             135     4.00549E-03     4.41304E-03
             548             135     4.00549E-03     4.41304E-03
            1085             136     4.40952E-03     4.80717E-03
            1084             136     4.40952E-03     4.80717E-03
             549             136     4.40952E-03     4.80717E-03
             550             136     4.40952E-03     4.80717E-03
             551             137     4.85674E-03     5.24307E-03
             550             137     4.85674E-03     5.24307E-03
            1083             137     4.85674E-03     5.24307E-03
            1084             137     4.85674E-03     5.24307E-03
             551             138     5.33646E-03     5.71086E-03
            1082             138     5.33646E-03     5.71086E-03
             552             138     5.33646E-03     5.71086E-03
            1083             138     5.33646E-03     5.71086E-03
            1082             139     5.84062E-03     6.20357E-03
            1081             139     5.84062E-03     6.20357E-03
             552             139     5.84062E-03     6.20357E-03
             553             139     5.84062E-03     6.20357E-03
             554             140     6.36310E-03     6.71535E-03
            1080             140     6.36310E-03     6.71535E-03
            1081             140     6.36310E-03     6.71535E-03
             553             140     6.36310E-03     6.71535E-03
             555             141     6.90001E-03     7.24225E-03
            1079             141     6.90001E-03     7.24225E-03
            1080             141     6.90001E-03     7.24225E-03
             554             141     6.90001E-03     7.24225E-03
            1079             142     7.44731E-03     7.78078E-03
            1078             142     7.44731E-03     7.78078E-03
             556             142     7.44731E-03     7.78078E-03
             555             142     7.44731E-03     7.78078E-03
             556             143     8.00380E-03     8.32908E-03
             557             143     8.00380E-03     8.32908E-03
            1078             143     8.00380E-03     8.32908E-03
            1077             143     8.00380E-03     8.32908E-03
            1076             144     8.56853E-03     8.88703E-03
            1077             144     8.56853E-03     8.88703E-03
             557             144     8.56853E-03     8.88703E-03
             558             144     8.56853E-03     8.88703E-03
             558             145     9.14535E-03     9.45893E-03
             559             145     9.14535E-03     9.45893E-03
            1076             145     9.14535E-03     9.45893E-03
            1075             145     9.14535E-03     9.45893E-03
             559             146     9.75823E-03     10.0729E-03
            1075             146     9.75823E-03     10.0729E-03
             560             146     9.75823E-03     10.0729E-03
            1074             146     9.75823E-03     10.0729E-03
             576             147     330.714E-06     347.722E-06
             560             147     330.714E-06     347.722E-06
             592             148     250.592E-06     248.871E-06
             576             148     250.592E-06     248.871E-06
             608             149     166.192E-06     168.438E-06
             592             149     166.192E-06     168.438E-06
             624             150     90.7798E-06     85.0228E-06
             608             150     90.7798E-06     85.0228E-06
             624             151     45.3393E-06     77.0169E-06
             640             151     45.3393E-06     77.0169E-06
             640             152     87.9145E-06     98.1629E-06
             639             152     87.9145E-06     98.1629E-06
             639             153     143.997E-06     115.202E-06
             638             153     143.997E-06     115.202E-06
             638             154     177.106E-06     152.519E-06
             637             154     177.106E-06     152.519E-06
             636             155     196.335E-06     172.926E-06
             637             155     196.335E-06     172.926E-06
             636             156     202.213E-06     181.136E-06
             635             156     202.213E-06     181.136E-06
             635             157     204.001E-06     183.476E-06
             634             157     204.001E-06     183.476E-06
             634             158     201.729E-06     182.837E-06
             633             158     201.729E-06     182.837E-06
             633             159     199.162E-06     181.521E-06
             632             159     199.162E-06     181.521E-06
             631             160     195.609E-06     179.467E-06
             632             160     195.609E-06     179.467E-06
             631             161     192.230E-06     177.976E-06
             630             161     192.230E-06     177.976E-06
             629             162     188.893E-06     176.293E-06
             630             162     188.893E-06     176.293E-06
             628             163     185.504E-06     175.512E-06
             629             163     185.504E-06     175.512E-06
             627             164     182.001E-06     174.817E-06
             628             164     182.001E-06     174.817E-06
             627             165     178.024E-06     176.526E-06
             626             165     178.024E-06     176.526E-06
             625             166     165.173E-06     185.160E-06
             626             166     165.173E-06     185.160E-06
             625             167     167.689E-06     183.189E-06
             609             167     167.689E-06     183.189E-06
             609             168     176.728E-06     161.853E-06
             593             168     176.728E-06     161.853E-06
             577             169     169.767E-06     147.862E-06
             593             169     169.767E-06     147.862E-06
             561             170     164.432E-06     148.228E-06
             577             170     164.432E-06     148.228E-06
             561             171     145.013E-06     154.999E-06
             545             171     145.013E-06     154.999E-06
            1074             194     45.3998E-03     55.3811E-03
            1090             194     45.3998E-03     55.3811E-03
            1090             195     91.0274E-03     100.386E-03
            1106             195     91.0274E-03     100.386E-03
            1106             196     137.764E-03     134.520E-03
            1122             196     137.764E-03     134.520E-03
            1122             197     190.402E-03     185.713E-03
            1138             197     190.402E-03     185.713E-03
            1154             198     237.565E-03     244.231E-03
            1138             198     237.565E-03     244.231E-03
            1154             199     296.743E-03     293.525E-03
            1170             199     296.743E-03     293.525E-03
            1186             200     346.864E-03     362.095E-03
            1170             200     346.864E-03     362.095E-03
            1186             201     330.282E-03     341.570E-03
            1202             201     330.282E-03     341.570E-03
            1218             202     332.941E-03     322.152E-03
            1202             202     332.941E-03     322.152E-03
            1218             203     406.891E-03     408.672E-03
            1234             203     406.891E-03     408.672E-03
            1234             204     469.293E-03     480.700E-03
            1250             204     469.293E-03     480.700E-03
            1250             205     532.460E-03     532.972E-03
            1266             205     532.460E-03     532.972E-03
            1282             206     584.220E-03     599.876E-03
            1266             206     584.220E-03     599.876E-03
            1282             207     566.528E-03     582.652E-03
            1298             207     566.528E-03     582.652E-03
            1298             208     579.996E-03     565.224E-03
            1314             208     579.996E-03     565.224E-03
            1314             209     651.948E-03     660.278E-03
            1330             209     651.948E-03     660.278E-03
            1330             210     721.599E-03     727.597E-03
            1346             210     721.599E-03     727.597E-03
            1346             211     774.751E-03     792.528E-03
            1362             211     774.751E-03     792.528E-03
            1362             212     835.570E-03     839.051E-03
            1378             212     835.570E-03     839.051E-03
            1394             213     881.434E-03     896.906E-03
            1378             213     881.434E-03     896.906E-03
            1394             214     852.592E-03     875.677E-03
            1410             214     852.592E-03     875.677E-03
            1410             215     869.489E-03     854.474E-03
            1426             215     869.489E-03     854.474E-03
            1426             216     946.108E-03     957.576E-03
            1442             216     946.108E-03     957.576E-03
            1458             217         1.01788         1.02912
            1442             217         1.01788         1.02912
            1458             218         1.07140         1.09445
            1474             218         1.07140         1.09445
            1490             219         1.13098         1.13744
            1474             219         1.13098         1.13744
            1506             220         1.17272         1.18825
            1490             220         1.17272         1.18825
            1506             221         1.13710         1.16723
            1522             221         1.13710         1.16723
            1522             222         1.15583         1.14776
            1538             222         1.15583         1.14776
            1554             223         1.24693         1.25438
            1538             223         1.24693         1.25438
            1570             224         1.31007         1.34506
            1554             224         1.31007         1.34506
            1586             225         1.37530         1.38110
            1570             225         1.37530         1.38110
            1602             226         1.41183         1.43118
            1586             226         1.41183         1.43118
            1752             339     84.6668E-03     64.3278E-03
            1736             339     84.6668E-03     64.3278E-03
            1736             340     141.571E-03     139.705E-03
            1720             340     141.571E-03     139.705E-03
            1720             341     198.214E-03     224.884E-03
            1704             341     198.214E-03     224.884E-03
            1688             342     132.342E-03     154.678E-03
            1704             342     132.342E-03     154.678E-03
            1688             343     83.5114E-03     109.010E-03
            1687             343     83.5114E-03     109.010E-03
            1616             343     83.5114E-03     109.010E-03
            1617             343     83.5114E-03     109.010E-03
            1615             344     158.659E-03     191.589E-03
            1616             344     158.659E-03     191.589E-03
            1687             344     158.659E-03     191.589E-03
            1686             344     158.659E-03     191.589E-03
            1686             345     240.037E-03     276.297E-03
            1685             345     240.037E-03     276.297E-03
            1614             345     240.037E-03     276.297E-03
            1615             345     240.037E-03     276.297E-03
            1613             346     323.395E-03     361.014E-03
            1685             346     323.395E-03     361.014E-03
            1684             346     323.395E-03     361.014E-03
            1614             346     323.395E-03     361.014E-03
            1684             347     407.476E-03     445.493E-03
            1683             347     407.476E-03     445.493E-03
            1612             347     407.476E-03     445.493E-03
            1613             347     407.476E-03     445.493E-03
            1683             348     491.656E-03     529.724E-03
            1682             348     491.656E-03     529.724E-03
            1612             348     491.656E-03     529.724E-03
            1611             348     491.656E-03     529.724E-03
            1611             349     575.870E-03     613.722E-03
            1682             349     575.870E-03     613.722E-03
            1610             349     575.870E-03     613.722E-03
            1681             349     575.870E-03     613.722E-03
            1609             350     659.594E-03     697.481E-03
            1680             350     659.594E-03     697.481E-03
            1681             350     659.594E-03     697.481E-03
            1610             350     659.594E-03     697.481E-03
            1679             351     743.153E-03     780.696E-03
            1680             351     743.153E-03     780.696E-03
            1608             351     743.153E-03     780.696E-03
            1609             351     743.153E-03     780.696E-03
            1678             352     826.045E-03     863.415E-03
            1608             352     826.045E-03     863.415E-03
            1679             352     826.045E-03     863.415E-03
            1607             352     826.045E-03     863.415E-03
            1678             353     909.327E-03     945.455E-03
            1606             353     909.327E-03     945.455E-03
            1607             353     909.327E-03     945.455E-03
            1677             353     909.327E-03     945.455E-03
            1676             354     992.564E-03         1.02737
            1606             354     992.564E-03         1.02737
            1605             354     992.564E-03         1.02737
            1677             354     992.564E-03         1.02737
            1676             355         1.07989         1.11169
            1675             355         1.07989         1.11169
            1605             355         1.07989         1.11169
            1604             355         1.07989         1.11169
            1675             356         1.17142         1.20251
            1603             356         1.17142         1.20251
            1604             356         1.17142         1.20251
            1674             356         1.17142         1.20251
            1674             357         1.29499         1.33803
            1602             357         1.29499         1.33803
            1673             357         1.29499         1.33803
            1603             357         1.29499         1.33803
            2656             374     125.831E-03     163.130E-03
            2655             374     125.831E-03     163.130E-03
            1752             374     125.831E-03     163.130E-03
            1751             374     125.831E-03     163.130E-03
            1751             375     168.402E-03     254.715E-03
            1750             375     168.402E-03     254.715E-03
            2654             375     168.402E-03     254.715E-03
            2655             375     168.402E-03     254.715E-03
            1750             376     246.311E-03     348.740E-03
            1749             376     246.311E-03     348.740E-03
            2654             376     246.311E-03     348.740E-03
            2653             376     246.311E-03     348.740E-03
            2653             377     335.982E-03     443.748E-03
            1749             377     335.982E-03     443.748E-03
            1748             377     335.982E-03     443.748E-03
            2652             377     335.982E-03     443.748E-03
            2651             378     430.374E-03     539.234E-03
            2652             378     430.374E-03     539.234E-03
            1747             378     430.374E-03     539.234E-03
            1748             378     430.374E-03     539.234E-03
            1747             379     526.522E-03     635.917E-03
            2650             379     526.522E-03     635.917E-03
            2651             379     526.522E-03     635.917E-03
            1746             379     526.522E-03     635.917E-03
            1746             380     623.659E-03     732.875E-03
            2650             380     623.659E-03     732.875E-03
            1745             380     623.659E-03     732.875E-03
            2649             380     623.659E-03     732.875E-03
            1745             381     720.919E-03     830.418E-03
            2648             381     720.919E-03     830.418E-03
            1744             381     720.919E-03     830.418E-03
            2649             381     720.919E-03     830.418E-03
            1744             382     818.941E-03     927.424E-03
            2648             382     818.941E-03     927.424E-03
            1743             382     818.941E-03     927.424E-03
            2647             382     818.941E-03     927.424E-03
            2646             383     915.902E-03         1.02507
            2647             383     915.902E-03         1.02507
            1743             383     915.902E-03         1.02507
            1742             383     915.902E-03         1.02507
            1741             384         1.01408         1.12115
            2645             384         1.01408         1.12115
            1742             384         1.01408         1.12115
            2646             384         1.01408         1.12115
            1740             385         1.10966         1.21759
            2645             385         1.10966         1.21759
            1741             385         1.10966         1.21759
            2644             385         1.10966         1.21759
            1740             386         1.21040         1.31440
            2643             386         1.21040         1.31440
            1739             386         1.21040         1.31440
            2644             386         1.21040         1.31440
            1739             387         1.30350         1.40670
            2643             387         1.30350         1.40670
            1738             387         1.30350         1.40670
            2642             387         1.30350         1.40670
            2642             388         1.45960         1.57171
            1737             388         1.45960         1.57171
            2641             388         1.45960         1.57171
            1738             388         1.45960         1.57171
            1737             389         1.62422         1.65501
            1721             389         1.62422         1.65501
            1705             390         1.56451         1.57020
            1721             390         1.56451         1.57020
            1689             391         1.44696         1.45993
            1705             391         1.44696         1.45993
            1673             392         1.36549         1.37667
            1689             392         1.36549         1.37667
            2704             412     208.042E-03     212.761E-03
            2720             412     208.042E-03     212.761E-03
            2688             413     166.585E-03     159.515E-03
            2704             413     166.585E-03     159.515E-03
            2672             414     161.697E-03     149.139E-03
            2688             414     161.697E-03     149.139E-03
            2672             415     185.266E-03     184.115E-03
            2656             415     185.266E-03     184.115E-03
            2657             420         1.45779         1.48021
            2641             420         1.45779         1.48021
            2657             421         1.38868         1.40875
            2673             421         1.38868         1.40875
            2689             422         1.33233         1.38303
            2673             422         1.33233         1.38303
            2705             423         1.15131         1.10931
            2689             423         1.15131         1.10931
            2369             444         1.00794         1.06037
            2385             444         1.00794         1.06037
            2385             445     845.803E-03     795.880E-03
            2401             445     845.803E-03     795.880E-03
            2401             446     800.527E-03     835.889E-03
            2417             446     800.527E-03     835.889E-03
            2433             447     830.101E-03     867.725E-03
            2417             447     830.101E-03     867.725E-03
            2433             448     707.275E-03     699.308E-03
            2449             448     707.275E-03     699.308E-03
            2449             449     561.857E-03     578.212E-03
            2465             449     561.857E-03     578.212E-03
            2481             450     445.703E-03     434.436E-03
            2465             450     445.703E-03     434.436E-03
            2481             451     315.100E-03     307.927E-03
            2497             451     315.100E-03     307.927E-03
            2513             452     200.724E-03     227.302E-03
            2497             452     200.724E-03     227.302E-03
            2513             453     97.4471E-03     124.641E-03
            2529             453     97.4471E-03     124.641E-03
            2370             507         1.01716         1.05466
            2705             507         1.01716         1.05466
            2369             507         1.01716         1.05466
            2706             507         1.01716         1.05466
            2707             508     966.822E-03     989.676E-03
            2706             508     966.822E-03     989.676E-03
            2370             508     966.822E-03     989.676E-03
            2371             508     966.822E-03     989.676E-03
            2707             509     911.276E-03     933.012E-03
            2708             509     911.276E-03     933.012E-03
            2372             509     911.276E-03     933.012E-03
            2371             509     911.276E-03     933.012E-03
            2372             510     842.179E-03     866.143E-03
            2708             510     842.179E-03     866.143E-03
            2373             510     842.179E-03     866.143E-03
            2709             510     842.179E-03     866.143E-03
            2374             511     775.317E-03     799.484E-03
            2710             511     775.317E-03     799.484E-03
            2373             511     775.317E-03     799.484E-03
            2709             511     775.317E-03     799.484E-03
            2710             512     707.224E-03     731.290E-03
            2374             512     707.224E-03     731.290E-03
            2375             512     707.224E-03     731.290E-03
            2711             512     707.224E-03     731.290E-03
            2375             513     639.597E-03     663.672E-03
            2376             513     639.597E-03     663.672E-03
            2712             513     639.597E-03     663.672E-03
            2711             513     639.597E-03     663.672E-03
            2712             514     572.152E-03     596.145E-03
            2376             514     572.152E-03     596.145E-03
            2377             514     572.152E-03     596.145E-03
            2713             514     572.152E-03     596.145E-03
            2713             515     505.646E-03     529.585E-03
            2378             515     505.646E-03     529.585E-03
            2714             515     505.646E-03     529.585E-03
            2377             515     505.646E-03     529.585E-03
            2379             516     440.559E-03     464.269E-03
            2714             516     440.559E-03     464.269E-03
            2715             516     440.559E-03     464.269E-03
            2378             516     440.559E-03     464.269E-03
            2380             517     377.753E-03     401.024E-03
            2715             517     377.753E-03     401.024E-03
            2716             517     377.753E-03     401.024E-03
            2379             517     377.753E-03     401.024E-03
            2717             518     318.808E-03     341.038E-03
            2716             518     318.808E-03     341.038E-03
            2380             518     318.808E-03     341.038E-03
            2381             518     318.808E-03     341.038E-03
            2382             519     266.114E-03     287.106E-03
            2717             519     266.114E-03     287.106E-03
            2718             519     266.114E-03     287.106E-03
            2381             519     266.114E-03     287.106E-03
            2382             520     225.843E-03     243.181E-03
            2718             520     225.843E-03     243.181E-03
            2719             520     225.843E-03     243.181E-03
            2383             520     225.843E-03     243.181E-03
            2719             521     191.342E-03     199.572E-03
            2720             521     191.342E-03     199.572E-03
            2384             521     191.342E-03     199.572E-03
            2383             521     191.342E-03     199.572E-03
            2384             522     169.445E-03     163.523E-03
            2400             522     169.445E-03     163.523E-03
            2416             523     197.221E-03     197.831E-03
            2400             523     197.221E-03     197.831E-03
            2432             524     166.699E-03     178.073E-03
            2416             524     166.699E-03     178.073E-03
            2448             525     155.590E-03     162.221E-03
            2432             525     155.590E-03     162.221E-03
            2464             526     182.301E-03     160.598E-03
            2448             526     182.301E-03     160.598E-03
            2464             527     198.021E-03     174.803E-03
            2480             527     198.021E-03     174.803E-03
            2496             528     213.582E-03     189.778E-03
            2480             528     213.582E-03     189.778E-03
            2496             529     230.473E-03     215.964E-03
            2512             529     230.473E-03     215.964E-03
            2528             530     228.330E-03     255.789E-03
            2512             530     228.330E-03     255.789E-03
            2544             531     112.956E-03     135.668E-03
            2528             531     112.956E-03     135.668E-03
            2929             532     2.93180E-03     3.92174E-03
            2930             532     2.93180E-03     3.92174E-03
            2543             532     2.93180E-03     3.92174E-03
            2544             532     2.93180E-03     3.92174E-03
            2543             533     3.81730E-03     4.73986E-03
            2542             533     3.81730E-03     4.73986E-03
            2928             533     3.81730E-03     4.73986E-03
            2929             533     3.81730E-03     4.73986E-03
            2542             534     4.90999E-03     5.75616E-03
            2928             534     4.90999E-03     5.75616E-03
            2541             534     4.90999E-03     5.75616E-03
            2927             534     4.90999E-03     5.75616E-03
            2541             535     6.09795E-03     6.88120E-03
            2927             535     6.09795E-03     6.88120E-03
            2926             535     6.09795E-03     6.88120E-03
            2540             535     6.09795E-03     6.88120E-03
            2926             536     7.33364E-03     8.06822E-03
            2539             536     7.33364E-03     8.06822E-03
            2925             536     7.33364E-03     8.06822E-03
            2540             536     7.33364E-03     8.06822E-03
            2538             537     8.59599E-03     9.29322E-03
            2925             537     8.59599E-03     9.29322E-03
            2924             537     8.59599E-03     9.29322E-03
            2539             537     8.59599E-03     9.29322E-03
            2924             538     9.87486E-03     10.5425E-03
            2538             538     9.87486E-03     10.5425E-03
            2923             538     9.87486E-03     10.5425E-03
            2537             538     9.87486E-03     10.5425E-03
            2536             539     11.1645E-03     11.8085E-03
            2923             539     11.1645E-03     11.8085E-03
            2922             539     11.1645E-03     11.8085E-03
            2537             539     11.1645E-03     11.8085E-03
            2536             540     12.4614E-03     13.0861E-03
            2535             540     12.4614E-03     13.0861E-03
            2922             540     12.4614E-03     13.0861E-03
            2921             540     12.4614E-03     13.0861E-03
            2921             541     13.7638E-03     14.3723E-03
            2920             541     13.7638E-03     14.3723E-03
            2534             541     13.7638E-03     14.3723E-03
            2535             541     13.7638E-03     14.3723E-03
            2534             542     15.0693E-03     15.6645E-03
            2533             542     15.0693E-03     15.6645E-03
            2920             542     15.0693E-03     15.6645E-03
            2919             542     15.0693E-03     15.6645E-03
            2532             543     16.3781E-03     16.9617E-03
            2533             543     16.3781E-03     16.9617E-03
            2919             543     16.3781E-03     16.9617E-03
            2918             543     16.3781E-03     16.9617E-03
            2531             544     17.6903E-03     18.2645E-03
            2532             544     17.6903E-03     18.2645E-03
            2918             544     17.6903E-03     18.2645E-03
            2917             544     17.6903E-03     18.2645E-03
            2530             545     19.0105E-03     19.5779E-03
            2531             545     19.0105E-03     19.5779E-03
            2917             545     19.0105E-03     19.5779E-03
            2916             545     19.0105E-03     19.5779E-03
            2530             546     20.3635E-03     20.9304E-03
            2916             546     20.3635E-03     20.9304E-03
            2915             546     20.3635E-03     20.9304E-03
            2529             546     20.3635E-03     20.9304E-03
            3010             582     167.393E-06     182.911E-06
            2994             582     167.393E-06     182.911E-06
            2978             583     176.519E-06     161.637E-06
            2994             583     176.519E-06     161.637E-06
            2978             584     169.692E-06     147.647E-06
            2962             584     169.692E-06     147.647E-06
            2946             585     164.378E-06     148.161E-06
            2962             585     164.378E-06     148.161E-06
            2930             586     144.997E-06     155.068E-06
            2946             586     144.997E-06     155.068E-06
            2979             596     44.7854E-06     76.6045E-06
            2995             596     44.7854E-06     76.6045E-06
            2979             597     89.7259E-06     84.0537E-06
            2963             597     89.7259E-06     84.0537E-06
            2947             598     164.918E-06     167.155E-06
            2963             598     164.918E-06     167.155E-06
            2947             599     249.046E-06     247.304E-06
            2931             599     249.046E-06     247.304E-06
            2915             600     328.773E-06     345.900E-06
            2931             600     328.773E-06     345.900E-06
            3009             616     164.899E-06     184.806E-06
            3010             616     164.899E-06     184.806E-06
            3008             617     177.739E-06     176.167E-06
            3009             617     177.739E-06     176.167E-06
            3007             618     181.685E-06     174.465E-06
            3008             618     181.685E-06     174.465E-06
            3006             619     185.171E-06     175.151E-06
            3007             619     185.171E-06     175.151E-06
            3006             620     188.535E-06     175.914E-06
            3005             620     188.535E-06     175.914E-06
            3005             621     191.854E-06     177.574E-06
            3004             621     191.854E-06     177.574E-06
            3003             622     195.216E-06     179.044E-06
            3004             622     195.216E-06     179.044E-06
            3002             623     198.759E-06     181.086E-06
            3003             623     198.759E-06     181.086E-06
            3002             624     201.333E-06     182.410E-06
            3001             624     201.333E-06     182.410E-06
            3001             625     203.642E-06     183.081E-06
            3000             625     203.642E-06     183.081E-06
            3000             626     201.941E-06     180.834E-06
            2999             626     201.941E-06     180.834E-06
            2998             627     196.201E-06     172.772E-06
            2999             627     196.201E-06     172.772E-06
            2997             628     177.137E-06     152.558E-06
            2998             628     177.137E-06     152.558E-06
            2996             629     144.263E-06     115.496E-06
            2997             629     144.263E-06     115.496E-06
            2995             630     88.0426E-06     98.3803E-06
            2996             630     88.0426E-06     98.3803E-06
             545            1130     144.224E-06     155.891E-06
             562            1130     144.224E-06     155.891E-06
             561            1130     144.224E-06     155.891E-06
             546            1130     144.224E-06     155.891E-06
             546            1131     144.762E-06     156.179E-06
             562            1131     144.762E-06     156.179E-06
             563            1131     144.762E-06     156.179E-06
             547            1131     144.762E-06     156.179E-06
             547            1132     146.864E-06     157.378E-06
             563            1132     146.864E-06     157.378E-06
             564            1132     146.864E-06     157.378E-06
             548            1132     146.864E-06     157.378E-06
             565            1133     148.214E-06     161.525E-06
             549            1133     148.214E-06     161.525E-06
             564            1133     148.214E-06     161.525E-06
             548            1133     148.214E-06     161.525E-06
             565            1134     150.076E-06     165.925E-06
             566            1134     150.076E-06     165.925E-06
             549            1134     150.076E-06     165.925E-06
             550            1134     150.076E-06     165.925E-06
             550            1135     153.044E-06     170.710E-06
             566            1135     153.044E-06     170.710E-06
             567            1135     153.044E-06     170.710E-06
             551            1135     153.044E-06     170.710E-06
             567            1136     156.756E-06     176.029E-06
             568            1136     156.756E-06     176.029E-06
             552            1136     156.756E-06     176.029E-06
             551            1136     156.756E-06     176.029E-06
             552            1137     161.400E-06     181.816E-06
             569            1137     161.400E-06     181.816E-06
             568            1137     161.400E-06     181.816E-06
             553            1137     161.400E-06     181.816E-06
             554            1138     166.536E-06     187.867E-06
             569            1138     166.536E-06     187.867E-06
             570            1138     166.536E-06     187.867E-06
             553            1138     166.536E-06     187.867E-06
             555            1139     172.222E-06     194.264E-06
             554            1139     172.222E-06     194.264E-06
             570            1139     172.222E-06     194.264E-06
             571            1139     172.222E-06     194.264E-06
             571            1140     177.760E-06     200.412E-06
             556            1140     177.760E-06     200.412E-06
             572            1140     177.760E-06     200.412E-06
             555            1140     177.760E-06     200.412E-06
             556            1141     183.562E-06     207.212E-06
             557            1141     183.562E-06     207.212E-06
             572            1141     183.562E-06     207.212E-06
             573            1141     183.562E-06     207.212E-06
             557            1142     190.615E-06     215.088E-06
             573            1142     190.615E-06     215.088E-06
             558            1142     190.615E-06     215.088E-06
             574            1142     190.615E-06     215.088E-06
             559            1143     213.884E-06     238.427E-06
             558            1143     213.884E-06     238.427E-06
             575            1143     213.884E-06     238.427E-06
             574            1143     213.884E-06     238.427E-06
             576            1144     282.118E-06     302.902E-06
             575            1144     282.118E-06     302.902E-06
             560            1144     282.118E-06     302.902E-06
             559            1144     282.118E-06     302.902E-06
             561            1145     160.210E-06     152.122E-06
             562            1145     160.210E-06     152.122E-06
             577            1145     160.210E-06     152.122E-06
             578            1145     160.210E-06     152.122E-06
             563            1146     154.851E-06     158.085E-06
             578            1146     154.851E-06     158.085E-06
             579            1146     154.851E-06     158.085E-06
             562            1146     154.851E-06     158.085E-06
             564            1147     154.274E-06     161.471E-06
             580            1147     154.274E-06     161.471E-06
             579            1147     154.274E-06     161.471E-06
             563            1147     154.274E-06     161.471E-06
             581            1148     155.422E-06     164.438E-06
             564            1148     155.422E-06     164.438E-06
             580            1148     155.422E-06     164.438E-06
             565            1148     155.422E-06     164.438E-06
             566            1149     157.645E-06     167.980E-06
             565            1149     157.645E-06     167.980E-06
             581            1149     157.645E-06     167.980E-06
             582            1149     157.645E-06     167.980E-06
             567            1150     160.917E-06     172.057E-06
             566            1150     160.917E-06     172.057E-06
             583            1150     160.917E-06     172.057E-06
             582            1150     160.917E-06     172.057E-06
             568            1151     164.966E-06     176.968E-06
             567            1151     164.966E-06     176.968E-06
             583            1151     164.966E-06     176.968E-06
             584            1151     164.966E-06     176.968E-06
             584            1152     169.814E-06     182.449E-06
             568            1152     169.814E-06     182.449E-06
             585            1152     169.814E-06     182.449E-06
             569            1152     169.814E-06     182.449E-06
             570            1153     175.694E-06     188.726E-06
             586            1153     175.694E-06     188.726E-06
             569            1153     175.694E-06     188.726E-06
             585            1153     175.694E-06     188.726E-06
             571            1154     182.080E-06     195.681E-06
             586            1154     182.080E-06     195.681E-06
             587            1154     182.080E-06     195.681E-06
             570            1154     182.080E-06     195.681E-06
             588            1155     189.696E-06     203.315E-06
             571            1155     189.696E-06     203.315E-06
             587            1155     189.696E-06     203.315E-06
             572            1155     189.696E-06     203.315E-06
             572            1156     196.461E-06     211.155E-06
             589            1156     196.461E-06     211.155E-06
             588            1156     196.461E-06     211.155E-06
             573            1156     196.461E-06     211.155E-06
             590            1157     202.304E-06     217.402E-06
             574            1157     202.304E-06     217.402E-06
             573            1157     202.304E-06     217.402E-06
             589            1157     202.304E-06     217.402E-06
             574            1158     214.131E-06     225.941E-06
             591            1158     214.131E-06     225.941E-06
             575            1158     214.131E-06     225.941E-06
             590            1158     214.131E-06     225.941E-06
             591            1159     236.398E-06     240.371E-06
             592            1159     236.398E-06     240.371E-06
             575            1159     236.398E-06     240.371E-06
             576            1159     236.398E-06     240.371E-06
             578            1160     169.223E-06     151.764E-06
             577            1160     169.223E-06     151.764E-06
             593            1160     169.223E-06     151.764E-06
             594            1160     169.223E-06     151.764E-06
             594            1161     165.428E-06     160.297E-06
             578            1161     165.428E-06     160.297E-06
             595            1161     165.428E-06     160.297E-06
             579            1161     165.428E-06     160.297E-06
             596            1162     161.763E-06     165.836E-06
             579            1162     161.763E-06     165.836E-06
             580            1162     161.763E-06     165.836E-06
             595            1162     161.763E-06     165.836E-06
             581            1163     163.022E-06     167.533E-06
             597            1163     163.022E-06     167.533E-06
             596            1163     163.022E-06     167.533E-06
             580            1163     163.022E-06     167.533E-06
             582            1164     165.863E-06     169.974E-06
             597            1164     165.863E-06     169.974E-06
             598            1164     165.863E-06     169.974E-06
             581            1164     165.863E-06     169.974E-06
             583            1165     169.150E-06     173.494E-06
             582            1165     169.150E-06     173.494E-06
             599            1165     169.150E-06     173.494E-06
             598            1165     169.150E-06     173.494E-06
             600            1166     173.296E-06     177.564E-06
             584            1166     173.296E-06     177.564E-06
             599            1166     173.296E-06     177.564E-06
             583            1166     173.296E-06     177.564E-06
             600            1167     178.230E-06     182.584E-06
             585            1167     178.230E-06     182.584E-06
             601            1167     178.230E-06     182.584E-06
             584            1167     178.230E-06     182.584E-06
             585            1168     183.952E-06     188.434E-06
             601            1168     183.952E-06     188.434E-06
             602            1168     183.952E-06     188.434E-06
             586            1168     183.952E-06     188.434E-06
             586            1169     191.037E-06     195.308E-06
             603            1169     191.037E-06     195.308E-06
             602            1169     191.037E-06     195.308E-06
             587            1169     191.037E-06     195.308E-06
             588            1170     198.401E-06     203.149E-06
             603            1170     198.401E-06     203.149E-06
             604            1170     198.401E-06     203.149E-06
             587            1170     198.401E-06     203.149E-06
             589            1171     205.933E-06     210.176E-06
             605            1171     205.933E-06     210.176E-06
             604            1171     205.933E-06     210.176E-06
             588            1171     205.933E-06     210.176E-06
             605            1172     207.574E-06     213.759E-06
             606            1172     207.574E-06     213.759E-06
             590            1172     207.574E-06     213.759E-06
             589            1172     207.574E-06     213.759E-06
             590            1173     187.784E-06     198.252E-06
             606            1173     187.784E-06     198.252E-06
             591            1173     187.784E-06     198.252E-06
             607            1173     187.784E-06     198.252E-06
             592            1174     168.491E-06     175.314E-06
             608            1174     168.491E-06     175.314E-06
             607            1174     168.491E-06     175.314E-06
             591            1174     168.491E-06     175.314E-06
             610            1175     172.436E-06     165.493E-06
             594            1175     172.436E-06     165.493E-06
             609            1175     172.436E-06     165.493E-06
             593            1175     172.436E-06     165.493E-06
             594            1176     168.004E-06     169.141E-06
             611            1176     168.004E-06     169.141E-06
             595            1176     168.004E-06     169.141E-06
             610            1176     168.004E-06     169.141E-06
             596            1177     169.272E-06     169.302E-06
             595            1177     169.272E-06     169.302E-06
             611            1177     169.272E-06     169.302E-06
             612            1177     169.272E-06     169.302E-06
             613            1178     171.672E-06     170.399E-06
             596            1178     171.672E-06     170.399E-06
             612            1178     171.672E-06     170.399E-06
             597            1178     171.672E-06     170.399E-06
             597            1179     174.498E-06     172.363E-06
             613            1179     174.498E-06     172.363E-06
             614            1179     174.498E-06     172.363E-06
             598            1179     174.498E-06     172.363E-06
             615            1180     177.988E-06     174.872E-06
             614            1180     177.988E-06     174.872E-06
             599            1180     177.988E-06     174.872E-06
             598            1180     177.988E-06     174.872E-06
             616            1181     181.884E-06     178.200E-06
             615            1181     181.884E-06     178.200E-06
             600            1181     181.884E-06     178.200E-06
             599            1181     181.884E-06     178.200E-06
             616            1182     186.344E-06     182.044E-06
             601            1182     186.344E-06     182.044E-06
             617            1182     186.344E-06     182.044E-06
             600            1182     186.344E-06     182.044E-06
             601            1183     191.427E-06     186.629E-06
             602            1183     191.427E-06     186.629E-06
             618            1183     191.427E-06     186.629E-06
             617            1183     191.427E-06     186.629E-06
             602            1184     197.008E-06     191.799E-06
             603            1184     197.008E-06     191.799E-06
             619            1184     197.008E-06     191.799E-06
             618            1184     197.008E-06     191.799E-06
             604            1185     202.797E-06     197.046E-06
             619            1185     202.797E-06     197.046E-06
             620            1185     202.797E-06     197.046E-06
             603            1185     202.797E-06     197.046E-06
             621            1186     206.623E-06     200.622E-06
             605            1186     206.623E-06     200.622E-06
             620            1186     206.623E-06     200.622E-06
             604            1186     206.623E-06     200.622E-06
             606            1187     201.961E-06     196.598E-06
             622            1187     201.961E-06     196.598E-06
             621            1187     201.961E-06     196.598E-06
             605            1187     201.961E-06     196.598E-06
             607            1188     166.913E-06     167.892E-06
             606            1188     166.913E-06     167.892E-06
             622            1188     166.913E-06     167.892E-06
             623            1188     166.913E-06     167.892E-06
             607            1189     114.029E-06     114.576E-06
             623            1189     114.029E-06     114.576E-06
             608            1189     114.029E-06     114.576E-06
             624            1189     114.029E-06     114.576E-06
             625            1190     168.836E-06     180.770E-06
             626            1190     168.836E-06     180.770E-06
             610            1190     168.836E-06     180.770E-06
             609            1190     168.836E-06     180.770E-06
             611            1191     172.747E-06     175.591E-06
             626            1191     172.747E-06     175.591E-06
             627            1191     172.747E-06     175.591E-06
             610            1191     172.747E-06     175.591E-06
             611            1192     177.536E-06     172.870E-06
             627            1192     177.536E-06     172.870E-06
             628            1192     177.536E-06     172.870E-06
             612            1192     177.536E-06     172.870E-06
             628            1193     180.893E-06     173.619E-06
             629            1193     180.893E-06     173.619E-06
             613            1193     180.893E-06     173.619E-06
             612            1193     180.893E-06     173.619E-06
             613            1194     183.920E-06     174.998E-06
             629            1194     183.920E-06     174.998E-06
             630            1194     183.920E-06     174.998E-06
             614            1194     183.920E-06     174.998E-06
             614            1195     187.382E-06     176.766E-06
             615            1195     187.382E-06     176.766E-06
             630            1195     187.382E-06     176.766E-06
             631            1195     187.382E-06     176.766E-06
             632            1196     190.964E-06     179.029E-06
             616            1196     190.964E-06     179.029E-06
             615            1196     190.964E-06     179.029E-06
             631            1196     190.964E-06     179.029E-06
             633            1197     194.708E-06     181.559E-06
             616            1197     194.708E-06     181.559E-06
             617            1197     194.708E-06     181.559E-06
             632            1197     194.708E-06     181.559E-06
             633            1198     198.428E-06     184.120E-06
             618            1198     198.428E-06     184.120E-06
             617            1198     198.428E-06     184.120E-06
             634            1198     198.428E-06     184.120E-06
             618            1199     201.473E-06     186.332E-06
             634            1199     201.473E-06     186.332E-06
             619            1199     201.473E-06     186.332E-06
             635            1199     201.473E-06     186.332E-06
             619            1200     203.216E-06     186.778E-06
             620            1200     203.216E-06     186.778E-06
             636            1200     203.216E-06     186.778E-06
             635            1200     203.216E-06     186.778E-06
             637            1201     200.160E-06     183.163E-06
             621            1201     200.160E-06     183.163E-06
             620            1201     200.160E-06     183.163E-06
             636            1201     200.160E-06     183.163E-06
             638            1202     186.902E-06     168.470E-06
             637            1202     186.902E-06     168.470E-06
             622            1202     186.902E-06     168.470E-06
             621            1202     186.902E-06     168.470E-06
             639            1203     153.937E-06     134.089E-06
             622            1203     153.937E-06     134.089E-06
             638            1203     153.937E-06     134.089E-06
             623            1203     153.937E-06     134.089E-06
             624            1204     88.0132E-06     94.1880E-06
             623            1204     88.0132E-06     94.1880E-06
             639            1204     88.0132E-06     94.1880E-06
             640            1204     88.0132E-06     94.1880E-06
            1090            1511     54.5966E-03     52.0013E-03
            1091            1511     54.5966E-03     52.0013E-03
            1075            1511     54.5966E-03     52.0013E-03
            1074            1511     54.5966E-03     52.0013E-03
            1092            1512     69.3671E-03     55.7180E-03
            1091            1512     69.3671E-03     55.7180E-03
            1075            1512     69.3671E-03     55.7180E-03
            1076            1512     69.3671E-03     55.7180E-03
            1076            1513     79.2896E-03     67.6003E-03
            1092            1513     79.2896E-03     67.6003E-03
            1093            1513     79.2896E-03     67.6003E-03
            1077            1513     79.2896E-03     67.6003E-03
            1078            1514     84.0402E-03     73.6212E-03
            1094            1514     84.0402E-03     73.6212E-03
            1077            1514     84.0402E-03     73.6212E-03
            1093            1514     84.0402E-03     73.6212E-03
            1078            1515     84.1550E-03     74.7261E-03
            1094            1515     84.1550E-03     74.7261E-03
            1095            1515     84.1550E-03     74.7261E-03
            1079            1515     84.1550E-03     74.7261E-03
            1080            1516     82.4554E-03     73.7304E-03
            1096            1516     82.4554E-03     73.7304E-03
            1095            1516     82.4554E-03     73.7304E-03
            1079            1516     82.4554E-03     73.7304E-03
            1096            1517     79.3482E-03     71.2751E-03
            1081            1517     79.3482E-03     71.2751E-03
            1097            1517     79.3482E-03     71.2751E-03
            1080            1517     79.3482E-03     71.2751E-03
            1098            1518     75.7274E-03     68.2639E-03
            1082            1518     75.7274E-03     68.2639E-03
            1081            1518     75.7274E-03     68.2639E-03
            1097            1518     75.7274E-03     68.2639E-03
            1098            1519     71.8692E-03     65.1002E-03
            1099            1519     71.8692E-03     65.1002E-03
            1083            1519     71.8692E-03     65.1002E-03
            1082            1519     71.8692E-03     65.1002E-03
            1084            1520     68.0533E-03     61.9959E-03
            1083            1520     68.0533E-03     61.9959E-03
            1099            1520     68.0533E-03     61.9959E-03
            1100            1520     68.0533E-03     61.9959E-03
            1084            1521     64.3752E-03     59.1516E-03
            1085            1521     64.3752E-03     59.1516E-03
            1101            1521     64.3752E-03     59.1516E-03
            1100            1521     64.3752E-03     59.1516E-03
            1101            1522     61.0063E-03     56.8208E-03
            1086            1522     61.0063E-03     56.8208E-03
            1102            1522     61.0063E-03     56.8208E-03
            1085            1522     61.0063E-03     56.8208E-03
            1086            1523     57.8985E-03     54.8406E-03
            1103            1523     57.8985E-03     54.8406E-03
            1087            1523     57.8985E-03     54.8406E-03
            1102            1523     57.8985E-03     54.8406E-03
            1087            1524     55.0365E-03     54.2501E-03
            1104            1524     55.0365E-03     54.2501E-03
            1103            1524     55.0365E-03     54.2501E-03
            1088            1524     55.0365E-03     54.2501E-03
            1089            1525     50.4020E-03     56.0063E-03
            1105            1525     50.4020E-03     56.0063E-03
            1104            1525     50.4020E-03     56.0063E-03
            1088            1525     50.4020E-03     56.0063E-03
            1091            1526     99.4072E-03     95.5144E-03
            1107            1526     99.4072E-03     95.5144E-03
            1106            1526     99.4072E-03     95.5144E-03
            1090            1526     99.4072E-03     95.5144E-03
            1091            1527     126.249E-03     108.103E-03
            1092            1527     126.249E-03     108.103E-03
            1108            1527     126.249E-03     108.103E-03
            1107            1527     126.249E-03     108.103E-03
            1092            1528     150.386E-03     132.027E-03
            1108            1528     150.386E-03     132.027E-03
            1109            1528     150.386E-03     132.027E-03
            1093            1528     150.386E-03     132.027E-03
            1110            1529     157.146E-03     140.328E-03
            1093            1529     157.146E-03     140.328E-03
            1109            1529     157.146E-03     140.328E-03
            1094            1529     157.146E-03     140.328E-03
            1110            1530     156.507E-03     140.814E-03
            1111            1530     156.507E-03     140.814E-03
            1095            1530     156.507E-03     140.814E-03
            1094            1530     156.507E-03     140.814E-03
            1111            1531     151.696E-03     136.933E-03
            1112            1531     151.696E-03     136.933E-03
            1095            1531     151.696E-03     136.933E-03
            1096            1531     151.696E-03     136.933E-03
            1096            1532     145.028E-03     131.312E-03
            1097            1532     145.028E-03     131.312E-03
            1113            1532     145.028E-03     131.312E-03
            1112            1532     145.028E-03     131.312E-03
            1097            1533     137.766E-03     124.947E-03
            1114            1533     137.766E-03     124.947E-03
            1098            1533     137.766E-03     124.947E-03
            1113            1533     137.766E-03     124.947E-03
            1114            1534     130.339E-03     118.578E-03
            1098            1534     130.339E-03     118.578E-03
            1099            1534     130.339E-03     118.578E-03
            1115            1534     130.339E-03     118.578E-03
            1116            1535     123.202E-03     112.571E-03
            1115            1535     123.202E-03     112.571E-03
            1099            1535     123.202E-03     112.571E-03
            1100            1535     123.202E-03     112.571E-03
            1116            1536     116.444E-03     107.160E-03
            1117            1536     116.444E-03     107.160E-03
            1100            1536     116.444E-03     107.160E-03
            1101            1536     116.444E-03     107.160E-03
            1117            1537     110.271E-03     102.721E-03
            1101            1537     110.271E-03     102.721E-03
            1118            1537     110.271E-03     102.721E-03
            1102            1537     110.271E-03     102.721E-03
            1119            1538     104.535E-03     99.5157E-03
            1102            1538     104.535E-03     99.5157E-03
            1118            1538     104.535E-03     99.5157E-03
            1103            1538     104.535E-03     99.5157E-03
            1103            1539     98.7486E-03     98.9863E-03
            1120            1539     98.7486E-03     98.9863E-03
            1104            1539     98.7486E-03     98.9863E-03
            1119            1539     98.7486E-03     98.9863E-03
            1105            1540     93.9349E-03     101.809E-03
            1121            1540     93.9349E-03     101.809E-03
            1120            1540     93.9349E-03     101.809E-03
            1104            1540     93.9349E-03     101.809E-03
            1123            1541     130.364E-03     128.868E-03
            1122            1541     130.364E-03     128.868E-03
            1107            1541     130.364E-03     128.868E-03
            1106            1541     130.364E-03     128.868E-03
            1108            1542     141.097E-03     138.213E-03
            1123            1542     141.097E-03     138.213E-03
            1107            1542     141.097E-03     138.213E-03
            1124            1542     141.097E-03     138.213E-03
            1109            1543     162.782E-03     156.056E-03
            1124            1543     162.782E-03     156.056E-03
            1125            1543     162.782E-03     156.056E-03
            1108            1543     162.782E-03     156.056E-03
            1125            1544     165.446E-03     157.582E-03
            1110            1544     165.446E-03     157.582E-03
            1126            1544     165.446E-03     157.582E-03
            1109            1544     165.446E-03     157.582E-03
            1111            1545     160.336E-03     152.258E-03
            1126            1545     160.336E-03     152.258E-03
            1127            1545     160.336E-03     152.258E-03
            1110            1545     160.336E-03     152.258E-03
            1112            1546     151.636E-03     143.941E-03
            1128            1546     151.636E-03     143.941E-03
            1111            1546     151.636E-03     143.941E-03
            1127            1546     151.636E-03     143.941E-03
            1129            1547     142.455E-03     135.107E-03
            1112            1547     142.455E-03     135.107E-03
            1113            1547     142.455E-03     135.107E-03
            1128            1547     142.455E-03     135.107E-03
            1130            1548     133.266E-03     126.355E-03
            1113            1548     133.266E-03     126.355E-03
            1129            1548     133.266E-03     126.355E-03
            1114            1548     133.266E-03     126.355E-03
            1114            1549     124.619E-03     118.184E-03
            1130            1549     124.619E-03     118.184E-03
            1115            1549     124.619E-03     118.184E-03
            1131            1549     124.619E-03     118.184E-03
            1115            1550     116.572E-03     110.706E-03
            1116            1550     116.572E-03     110.706E-03
            1132            1550     116.572E-03     110.706E-03
            1131            1550     116.572E-03     110.706E-03
            1117            1551     109.232E-03     104.177E-03
            1132            1551     109.232E-03     104.177E-03
            1133            1551     109.232E-03     104.177E-03
            1116            1551     109.232E-03     104.177E-03
            1118            1552     102.760E-03     98.6392E-03
            1117            1552     102.760E-03     98.6392E-03
            1134            1552     102.760E-03     98.6392E-03
            1133            1552     102.760E-03     98.6392E-03
            1118            1553     96.7537E-03     94.8554E-03
            1119            1553     96.7537E-03     94.8554E-03
            1135            1553     96.7537E-03     94.8554E-03
            1134            1553     96.7537E-03     94.8554E-03
            1119            1554     92.2629E-03     93.1453E-03
            1120            1554     92.2629E-03     93.1453E-03
            1135            1554     92.2629E-03     93.1453E-03
            1136            1554     92.2629E-03     93.1453E-03
            1120            1555     92.1426E-03     90.0590E-03
            1136            1555     92.1426E-03     90.0590E-03
            1121            1555     92.1426E-03     90.0590E-03
            1137            1555     92.1426E-03     90.0590E-03
            1123            1556     174.686E-03     175.012E-03
            1122            1556     174.686E-03     175.012E-03
            1139            1556     174.686E-03     175.012E-03
            1138            1556     174.686E-03     175.012E-03
            1139            1557     163.279E-03     168.394E-03
            1140            1557     163.279E-03     168.394E-03
            1123            1557     163.279E-03     168.394E-03
            1124            1557     163.279E-03     168.394E-03
            1124            1558     170.573E-03     173.065E-03
            1125            1558     170.573E-03     173.065E-03
            1140            1558     170.573E-03     173.065E-03
            1141            1558     170.573E-03     173.065E-03
            1141            1559     168.909E-03     168.972E-03
            1142            1559     168.909E-03     168.972E-03
            1125            1559     168.909E-03     168.972E-03
            1126            1559     168.909E-03     168.972E-03
            1142            1560     159.505E-03     159.275E-03
            1143            1560     159.505E-03     159.275E-03
            1126            1560     159.505E-03     159.275E-03
            1127            1560     159.505E-03     159.275E-03
            1127            1561     149.156E-03     148.613E-03
            1143            1561     149.156E-03     148.613E-03
            1144            1561     149.156E-03     148.613E-03
            1128            1561     149.156E-03     148.613E-03
            1144            1562     138.305E-03     137.697E-03
            1129            1562     138.305E-03     137.697E-03
            1145            1562     138.305E-03     137.697E-03
            1128            1562     138.305E-03     137.697E-03
            1130            1563     128.086E-03     127.475E-03
            1146            1563     128.086E-03     127.475E-03
            1145            1563     128.086E-03     127.475E-03
            1129            1563     128.086E-03     127.475E-03
            1130            1564     118.568E-03     117.971E-03
            1147            1564     118.568E-03     117.971E-03
            1146            1564     118.568E-03     117.971E-03
            1131            1564     118.568E-03     117.971E-03
            1147            1565     109.865E-03     109.351E-03
            1132            1565     109.865E-03     109.351E-03
            1148            1565     109.865E-03     109.351E-03
            1131            1565     109.865E-03     109.351E-03
            1149            1566     102.091E-03     101.707E-03
            1132            1566     102.091E-03     101.707E-03
            1133            1566     102.091E-03     101.707E-03
            1148            1566     102.091E-03     101.707E-03
            1149            1567     95.3163E-03     95.2009E-03
            1134            1567     95.3163E-03     95.2009E-03
            1150            1567     95.3163E-03     95.2009E-03
            1133            1567     95.3163E-03     95.2009E-03
            1135            1568     90.1578E-03     89.8524E-03
            1150            1568     90.1578E-03     89.8524E-03
            1134            1568     90.1578E-03     89.8524E-03
            1151            1568     90.1578E-03     89.8524E-03
            1151            1569     87.5759E-03     84.5291E-03
            1152            1569     87.5759E-03     84.5291E-03
            1136            1569     87.5759E-03     84.5291E-03
            1135            1569     87.5759E-03     84.5291E-03
            1153            1570     86.6765E-03     79.2520E-03
            1152            1570     86.6765E-03     79.2520E-03
            1137            1570     86.6765E-03     79.2520E-03
            1136            1570     86.6765E-03     79.2520E-03
            1139            1571     218.567E-03     224.094E-03
            1154            1571     218.567E-03     224.094E-03
            1155            1571     218.567E-03     224.094E-03
            1138            1571     218.567E-03     224.094E-03
            1140            1572     191.643E-03     197.551E-03
            1155            1572     191.643E-03     197.551E-03
            1156            1572     191.643E-03     197.551E-03
            1139            1572     191.643E-03     197.551E-03
            1141            1573     177.109E-03     184.922E-03
            1156            1573     177.109E-03     184.922E-03
            1140            1573     177.109E-03     184.922E-03
            1157            1573     177.109E-03     184.922E-03
            1158            1574     165.437E-03     173.252E-03
            1142            1574     165.437E-03     173.252E-03
            1157            1574     165.437E-03     173.252E-03
            1141            1574     165.437E-03     173.252E-03
            1142            1575     154.589E-03     161.675E-03
            1158            1575     154.589E-03     161.675E-03
            1159            1575     154.589E-03     161.675E-03
            1143            1575     154.589E-03     161.675E-03
            1143            1576     143.147E-03     149.725E-03
            1144            1576     143.147E-03     149.725E-03
            1160            1576     143.147E-03     149.725E-03
            1159            1576     143.147E-03     149.725E-03
            1160            1577     132.082E-03     138.350E-03
            1161            1577     132.082E-03     138.350E-03
            1145            1577     132.082E-03     138.350E-03
            1144            1577     132.082E-03     138.350E-03
            1162            1578     121.581E-03     127.521E-03
            1161            1578     121.581E-03     127.521E-03
            1145            1578     121.581E-03     127.521E-03
            1146            1578     121.581E-03     127.521E-03
            1163            1579     111.748E-03     117.381E-03
            1162            1579     111.748E-03     117.381E-03
            1147            1579     111.748E-03     117.381E-03
            1146            1579     111.748E-03     117.381E-03
            1147            1580     102.760E-03     108.020E-03
            1148            1580     102.760E-03     108.020E-03
            1163            1580     102.760E-03     108.020E-03
            1164            1580     102.760E-03     108.020E-03
            1148            1581     94.7101E-03     99.4605E-03
            1165            1581     94.7101E-03     99.4605E-03
            1164            1581     94.7101E-03     99.4605E-03
            1149            1581     94.7101E-03     99.4605E-03
            1165            1582     87.8522E-03     91.9922E-03
            1149            1582     87.8522E-03     91.9922E-03
            1150            1582     87.8522E-03     91.9922E-03
            1166            1582     87.8522E-03     91.9922E-03
            1167            1583     83.0832E-03     85.0881E-03
            1151            1583     83.0832E-03     85.0881E-03
            1166            1583     83.0832E-03     85.0881E-03
            1150            1583     83.0832E-03     85.0881E-03
            1151            1584     80.7727E-03     77.9572E-03
            1152            1584     80.7727E-03     77.9572E-03
            1168            1584     80.7727E-03     77.9572E-03
            1167            1584     80.7727E-03     77.9572E-03
            1168            1585     79.8904E-03     72.5412E-03
            1153            1585     79.8904E-03     72.5412E-03
            1152            1585     79.8904E-03     72.5412E-03
            1169            1585     79.8904E-03     72.5412E-03
            1154            1586     265.579E-03     267.099E-03
            1170            1586     265.579E-03     267.099E-03
            1171            1586     265.579E-03     267.099E-03
            1155            1586     265.579E-03     267.099E-03
            1156            1587     210.718E-03     220.450E-03
            1155            1587     210.718E-03     220.450E-03
            1171            1587     210.718E-03     220.450E-03
            1172            1587     210.718E-03     220.450E-03
            1156            1588     175.971E-03     190.217E-03
            1172            1588     175.971E-03     190.217E-03
            1173            1588     175.971E-03     190.217E-03
            1157            1588     175.971E-03     190.217E-03
            1157            1589     158.577E-03     173.444E-03
            1173            1589     158.577E-03     173.444E-03
            1174            1589     158.577E-03     173.444E-03
            1158            1589     158.577E-03     173.444E-03
            1175            1590     146.187E-03     160.351E-03
            1158            1590     146.187E-03     160.351E-03
            1174            1590     146.187E-03     160.351E-03
            1159            1590     146.187E-03     160.351E-03
            1160            1591     134.770E-03     148.494E-03
            1175            1591     134.770E-03     148.494E-03
            1159            1591     134.770E-03     148.494E-03
            1176            1591     134.770E-03     148.494E-03
            1161            1592     124.141E-03     137.388E-03
            1160            1592     124.141E-03     137.388E-03
            1176            1592     124.141E-03     137.388E-03
            1177            1592     124.141E-03     137.388E-03
            1162            1593     113.852E-03     126.635E-03
            1177            1593     113.852E-03     126.635E-03
            1178            1593     113.852E-03     126.635E-03
            1161            1593     113.852E-03     126.635E-03
            1178            1594     104.137E-03     116.361E-03
            1179            1594     104.137E-03     116.361E-03
            1163            1594     104.137E-03     116.361E-03
            1162            1594     104.137E-03     116.361E-03
            1163            1595     95.0627E-03     106.519E-03
            1180            1595     95.0627E-03     106.519E-03
            1164            1595     95.0627E-03     106.519E-03
            1179            1595     95.0627E-03     106.519E-03
            1181            1596     86.9160E-03     97.3720E-03
            1164            1596     86.9160E-03     97.3720E-03
            1165            1596     86.9160E-03     97.3720E-03
            1180            1596     86.9160E-03     97.3720E-03
            1181            1597     80.0760E-03     88.8317E-03
            1166            1597     80.0760E-03     88.8317E-03
            1182            1597     80.0760E-03     88.8317E-03
            1165            1597     80.0760E-03     88.8317E-03
            1167            1598     74.6093E-03     81.2547E-03
            1183            1598     74.6093E-03     81.2547E-03
            1166            1598     74.6093E-03     81.2547E-03
            1182            1598     74.6093E-03     81.2547E-03
            1167            1599     71.4981E-03     74.7053E-03
            1168            1599     71.4981E-03     74.7053E-03
            1184            1599     71.4981E-03     74.7053E-03
            1183            1599     71.4981E-03     74.7053E-03
            1168            1600     71.8359E-03     67.9073E-03
            1169            1600     71.8359E-03     67.9073E-03
            1185            1600     71.8359E-03     67.9073E-03
            1184            1600     71.8359E-03     67.9073E-03
            1186            1601     290.915E-03     309.702E-03
            1170            1601     290.915E-03     309.702E-03
            1171            1601     290.915E-03     309.702E-03
            1187            1601     290.915E-03     309.702E-03
            1172            1602     208.113E-03     230.401E-03
            1171            1602     208.113E-03     230.401E-03
            1187            1602     208.113E-03     230.401E-03
            1188            1602     208.113E-03     230.401E-03
            1172            1603     170.229E-03     192.237E-03
            1173            1603     170.229E-03     192.237E-03
            1189            1603     170.229E-03     192.237E-03
            1188            1603     170.229E-03     192.237E-03
            1189            1604     150.829E-03     172.388E-03
            1174            1604     150.829E-03     172.388E-03
            1173            1604     150.829E-03     172.388E-03
            1190            1604     150.829E-03     172.388E-03
            1174            1605     136.828E-03     158.203E-03
            1191            1605     136.828E-03     158.203E-03
            1190            1605     136.828E-03     158.203E-03
            1175            1605     136.828E-03     158.203E-03
            1192            1606     125.859E-03     146.830E-03
            1191            1606     125.859E-03     146.830E-03
            1175            1606     125.859E-03     146.830E-03
            1176            1606     125.859E-03     146.830E-03
            1192            1607     115.424E-03     135.953E-03
            1193            1607     115.424E-03     135.953E-03
            1176            1607     115.424E-03     135.953E-03
            1177            1607     115.424E-03     135.953E-03
            1177            1608     105.481E-03     125.496E-03
            1194            1608     105.481E-03     125.496E-03
            1193            1608     105.481E-03     125.496E-03
            1178            1608     105.481E-03     125.496E-03
            1194            1609     95.8733E-03     115.119E-03
            1179            1609     95.8733E-03     115.119E-03
            1195            1609     95.8733E-03     115.119E-03
            1178            1609     95.8733E-03     115.119E-03
            1179            1610     86.8253E-03     105.063E-03
            1196            1610     86.8253E-03     105.063E-03
            1195            1610     86.8253E-03     105.063E-03
            1180            1610     86.8253E-03     105.063E-03
            1181            1611     78.6220E-03     95.3321E-03
            1196            1611     78.6220E-03     95.3321E-03
            1197            1611     78.6220E-03     95.3321E-03
            1180            1611     78.6220E-03     95.3321E-03
            1197            1612     71.6032E-03     86.1425E-03
            1182            1612     71.6032E-03     86.1425E-03
            1198            1612     71.6032E-03     86.1425E-03
            1181            1612     71.6032E-03     86.1425E-03
            1182            1613     65.9250E-03     77.8138E-03
            1183            1613     65.9250E-03     77.8138E-03
            1199            1613     65.9250E-03     77.8138E-03
            1198            1613     65.9250E-03     77.8138E-03
            1183            1614     61.6793E-03     71.1830E-03
            1184            1614     61.6793E-03     71.1830E-03
            1200            1614     61.6793E-03     71.1830E-03
            1199            1614     61.6793E-03     71.1830E-03
            1185            1615     59.6579E-03     66.5587E-03
            1184            1615     59.6579E-03     66.5587E-03
            1201            1615     59.6579E-03     66.5587E-03
            1200            1615     59.6579E-03     66.5587E-03
            1186            1616     311.303E-03     318.129E-03
            1202            1616     311.303E-03     318.129E-03
            1203            1616     311.303E-03     318.129E-03
            1187            1616     311.303E-03     318.129E-03
            1203            1617     283.948E-03     285.019E-03
            1204            1617     283.948E-03     285.019E-03
            1187            1617     283.948E-03     285.019E-03
            1188            1617     283.948E-03     285.019E-03
            1189            1618     267.006E-03     267.916E-03
            1188            1618     267.006E-03     267.916E-03
            1204            1618     267.006E-03     267.916E-03
            1205            1618     267.006E-03     267.916E-03
            1190            1619     250.287E-03     252.351E-03
            1206            1619     250.287E-03     252.351E-03
            1189            1619     250.287E-03     252.351E-03
            1205            1619     250.287E-03     252.351E-03
            1191            1620     234.084E-03     236.714E-03
            1207            1620     234.084E-03     236.714E-03
            1190            1620     234.084E-03     236.714E-03
            1206            1620     234.084E-03     236.714E-03
            1207            1621     217.455E-03     220.429E-03
            1191            1621     217.455E-03     220.429E-03
            1208            1621     217.455E-03     220.429E-03
            1192            1621     217.455E-03     220.429E-03
            1192            1622     200.515E-03     203.609E-03
            1208            1622     200.515E-03     203.609E-03
            1209            1622     200.515E-03     203.609E-03
            1193            1622     200.515E-03     203.609E-03
            1209            1623     183.567E-03     186.716E-03
            1210            1623     183.567E-03     186.716E-03
            1194            1623     183.567E-03     186.716E-03
            1193            1623     183.567E-03     186.716E-03
            1210            1624     166.693E-03     169.708E-03
            1195            1624     166.693E-03     169.708E-03
            1211            1624     166.693E-03     169.708E-03
            1194            1624     166.693E-03     169.708E-03
            1196            1625     150.331E-03     153.247E-03
            1212            1625     150.331E-03     153.247E-03
            1211            1625     150.331E-03     153.247E-03
            1195            1625     150.331E-03     153.247E-03
            1212            1626     134.706E-03     137.254E-03
            1213            1626     134.706E-03     137.254E-03
            1197            1626     134.706E-03     137.254E-03
            1196            1626     134.706E-03     137.254E-03
            1198            1627     120.385E-03     122.694E-03
            1213            1627     120.385E-03     122.694E-03
            1197            1627     120.385E-03     122.694E-03
            1214            1627     120.385E-03     122.694E-03
            1214            1628     107.725E-03     109.389E-03
            1215            1628     107.725E-03     109.389E-03
            1198            1628     107.725E-03     109.389E-03
            1199            1628     107.725E-03     109.389E-03
            1215            1629     97.1337E-03     99.9679E-03
            1199            1629     97.1337E-03     99.9679E-03
            1216            1629     97.1337E-03     99.9679E-03
            1200            1629     97.1337E-03     99.9679E-03
            1200            1630     85.6541E-03     96.7813E-03
            1216            1630     85.6541E-03     96.7813E-03
            1217            1630     85.6541E-03     96.7813E-03
            1201            1630     85.6541E-03     96.7813E-03
            1203            1631     353.028E-03     339.926E-03
            1218            1631     353.028E-03     339.926E-03
            1202            1631     353.028E-03     339.926E-03
            1219            1631     353.028E-03     339.926E-03
            1219            1632     377.417E-03     361.679E-03
            1203            1632     377.417E-03     361.679E-03
            1220            1632     377.417E-03     361.679E-03
            1204            1632     377.417E-03     361.679E-03
            1205            1633     375.483E-03     360.234E-03
            1204            1633     375.483E-03     360.234E-03
            1220            1633     375.483E-03     360.234E-03
            1221            1633     375.483E-03     360.234E-03
            1221            1634     359.605E-03     344.885E-03
            1222            1634     359.605E-03     344.885E-03
            1205            1634     359.605E-03     344.885E-03
            1206            1634     359.605E-03     344.885E-03
            1223            1635     337.479E-03     323.345E-03
            1222            1635     337.479E-03     323.345E-03
            1207            1635     337.479E-03     323.345E-03
            1206            1635     337.479E-03     323.345E-03
            1223            1636     312.693E-03     299.354E-03
            1208            1636     312.693E-03     299.354E-03
            1224            1636     312.693E-03     299.354E-03
            1207            1636     312.693E-03     299.354E-03
            1224            1637     287.479E-03     274.411E-03
            1209            1637     287.479E-03     274.411E-03
            1225            1637     287.479E-03     274.411E-03
            1208            1637     287.479E-03     274.411E-03
            1209            1638     261.968E-03     249.376E-03
            1225            1638     261.968E-03     249.376E-03
            1210            1638     261.968E-03     249.376E-03
            1226            1638     261.968E-03     249.376E-03
            1227            1639     236.835E-03     224.605E-03
            1226            1639     236.835E-03     224.605E-03
            1210            1639     236.835E-03     224.605E-03
            1211            1639     236.835E-03     224.605E-03
            1211            1640     212.176E-03     200.499E-03
            1212            1640     212.176E-03     200.499E-03
            1228            1640     212.176E-03     200.499E-03
            1227            1640     212.176E-03     200.499E-03
            1229            1641     188.407E-03     177.488E-03
            1228            1641     188.407E-03     177.488E-03
            1212            1641     188.407E-03     177.488E-03
            1213            1641     188.407E-03     177.488E-03
            1213            1642     166.058E-03     156.264E-03
            1230            1642     166.058E-03     156.264E-03
            1214            1642     166.058E-03     156.264E-03
            1229            1642     166.058E-03     156.264E-03
            1230            1643     145.452E-03     137.907E-03
            1214            1643     145.452E-03     137.907E-03
            1215            1643     145.452E-03     137.907E-03
            1231            1643     145.452E-03     137.907E-03
            1231            1644     127.054E-03     125.315E-03
            1232            1644     127.054E-03     125.315E-03
            1215            1644     127.054E-03     125.315E-03
            1216            1644     127.054E-03     125.315E-03
            1232            1645     112.889E-03     121.642E-03
            1233            1645     112.889E-03     121.642E-03
            1216            1645     112.889E-03     121.642E-03
            1217            1645     112.889E-03     121.642E-03
            1219            1646     402.273E-03     407.318E-03
            1235            1646     402.273E-03     407.318E-03
            1218            1646     402.273E-03     407.318E-03
            1234            1646     402.273E-03     407.318E-03
            1236            1647     398.976E-03     403.733E-03
            1220            1647     398.976E-03     403.733E-03
            1219            1647     398.976E-03     403.733E-03
            1235            1647     398.976E-03     403.733E-03
            1220            1648     390.515E-03     389.860E-03
            1236            1648     390.515E-03     389.860E-03
            1237            1648     390.515E-03     389.860E-03
            1221            1648     390.515E-03     389.860E-03
            1221            1649     366.439E-03     364.154E-03
            1222            1649     366.439E-03     364.154E-03
            1237            1649     366.439E-03     364.154E-03
            1238            1649     366.439E-03     364.154E-03
            1223            1650     338.231E-03     335.770E-03
            1222            1650     338.231E-03     335.770E-03
            1239            1650     338.231E-03     335.770E-03
            1238            1650     338.231E-03     335.770E-03
            1240            1651     309.923E-03     307.214E-03
            1239            1651     309.923E-03     307.214E-03
            1223            1651     309.923E-03     307.214E-03
            1224            1651     309.923E-03     307.214E-03
            1225            1652     281.636E-03     278.982E-03
            1240            1652     281.636E-03     278.982E-03
            1241            1652     281.636E-03     278.982E-03
            1224            1652     281.636E-03     278.982E-03
            1241            1653     254.028E-03     251.347E-03
            1242            1653     254.028E-03     251.347E-03
            1225            1653     254.028E-03     251.347E-03
            1226            1653     254.028E-03     251.347E-03
            1226            1654     226.957E-03     224.361E-03
            1243            1654     226.957E-03     224.361E-03
            1242            1654     226.957E-03     224.361E-03
            1227            1654     226.957E-03     224.361E-03
            1228            1655     200.700E-03     198.087E-03
            1244            1655     200.700E-03     198.087E-03
            1227            1655     200.700E-03     198.087E-03
            1243            1655     200.700E-03     198.087E-03
            1245            1656     175.323E-03     172.912E-03
            1228            1656     175.323E-03     172.912E-03
            1244            1656     175.323E-03     172.912E-03
            1229            1656     175.323E-03     172.912E-03
            1246            1657     151.372E-03     149.317E-03
            1245            1657     151.372E-03     149.317E-03
            1229            1657     151.372E-03     149.317E-03
            1230            1657     151.372E-03     149.317E-03
            1247            1658     129.156E-03     128.642E-03
            1230            1658     129.156E-03     128.642E-03
            1231            1658     129.156E-03     128.642E-03
            1246            1658     129.156E-03     128.642E-03
            1231            1659     110.254E-03     113.443E-03
            1247            1659     110.254E-03     113.443E-03
            1248            1659     110.254E-03     113.443E-03
            1232            1659     110.254E-03     113.443E-03
            1249            1660     100.648E-03     101.262E-03
            1248            1660     100.648E-03     101.262E-03
            1233            1660     100.648E-03     101.262E-03
            1232            1660     100.648E-03     101.262E-03
            1235            1661     453.179E-03     465.027E-03
            1251            1661     453.179E-03     465.027E-03
            1234            1661     453.179E-03     465.027E-03
            1250            1661     453.179E-03     465.027E-03
            1236            1662     424.335E-03     436.194E-03
            1252            1662     424.335E-03     436.194E-03
            1235            1662     424.335E-03     436.194E-03
            1251            1662     424.335E-03     436.194E-03
            1236            1663     395.286E-03     406.219E-03
            1252            1663     395.286E-03     406.219E-03
            1253            1663     395.286E-03     406.219E-03
            1237            1663     395.286E-03     406.219E-03
            1254            1664     363.779E-03     373.634E-03
            1237            1664     363.779E-03     373.634E-03
            1253            1664     363.779E-03     373.634E-03
            1238            1664     363.779E-03     373.634E-03
            1255            1665     333.489E-03     342.304E-03
            1254            1665     333.489E-03     342.304E-03
            1238            1665     333.489E-03     342.304E-03
            1239            1665     333.489E-03     342.304E-03
            1256            1666     303.483E-03     311.670E-03
            1239            1666     303.483E-03     311.670E-03
            1240            1666     303.483E-03     311.670E-03
            1255            1666     303.483E-03     311.670E-03
            1240            1667     274.052E-03     282.012E-03
            1257            1667     274.052E-03     282.012E-03
            1256            1667     274.052E-03     282.012E-03
            1241            1667     274.052E-03     282.012E-03
            1258            1668     245.221E-03     253.010E-03
            1241            1668     245.221E-03     253.010E-03
            1257            1668     245.221E-03     253.010E-03
            1242            1668     245.221E-03     253.010E-03
            1258            1669     216.991E-03     224.610E-03
            1242            1669     216.991E-03     224.610E-03
            1259            1669     216.991E-03     224.610E-03
            1243            1669     216.991E-03     224.610E-03
            1243            1670     189.417E-03     196.870E-03
            1259            1670     189.417E-03     196.870E-03
            1260            1670     189.417E-03     196.870E-03
            1244            1670     189.417E-03     196.870E-03
            1244            1671     162.782E-03     169.934E-03
            1261            1671     162.782E-03     169.934E-03
            1245            1671     162.782E-03     169.934E-03
            1260            1671     162.782E-03     169.934E-03
            1245            1672     137.274E-03     144.307E-03
            1262            1672     137.274E-03     144.307E-03
            1246            1672     137.274E-03     144.307E-03
            1261            1672     137.274E-03     144.307E-03
            1262            1673     113.945E-03     121.014E-03
            1263            1673     113.945E-03     121.014E-03
            1247            1673     113.945E-03     121.014E-03
            1246            1673     113.945E-03     121.014E-03
            1247            1674     96.0000E-03     99.6289E-03
            1263            1674     96.0000E-03     99.6289E-03
            1264            1674     96.0000E-03     99.6289E-03
            1248            1674     96.0000E-03     99.6289E-03
            1264            1675     85.1215E-03     80.6196E-03
            1265            1675     85.1215E-03     80.6196E-03
            1248            1675     85.1215E-03     80.6196E-03
            1249            1675     85.1215E-03     80.6196E-03
            1266            1676     502.157E-03     508.475E-03
            1267            1676     502.157E-03     508.475E-03
            1251            1676     502.157E-03     508.475E-03
            1250            1676     502.157E-03     508.475E-03
            1268            1677     439.375E-03     455.712E-03
            1267            1677     439.375E-03     455.712E-03
            1252            1677     439.375E-03     455.712E-03
            1251            1677     439.375E-03     455.712E-03
            1269            1678     388.157E-03     409.048E-03
            1252            1678     388.157E-03     409.048E-03
            1253            1678     388.157E-03     409.048E-03
            1268            1678     388.157E-03     409.048E-03
            1269            1679     354.089E-03     374.364E-03
            1253            1679     354.089E-03     374.364E-03
            1254            1679     354.089E-03     374.364E-03
            1270            1679     354.089E-03     374.364E-03
            1254            1680     323.364E-03     342.613E-03
            1271            1680     323.364E-03     342.613E-03
            1255            1680     323.364E-03     342.613E-03
            1270            1680     323.364E-03     342.613E-03
            1256            1681     293.442E-03     312.423E-03
            1255            1681     293.442E-03     312.423E-03
            1271            1681     293.442E-03     312.423E-03
            1272            1681     293.442E-03     312.423E-03
            1256            1682     264.208E-03     282.896E-03
            1273            1682     264.208E-03     282.896E-03
            1257            1682     264.208E-03     282.896E-03
            1272            1682     264.208E-03     282.896E-03
            1274            1683     235.103E-03     253.712E-03
            1258            1683     235.103E-03     253.712E-03
            1273            1683     235.103E-03     253.712E-03
            1257            1683     235.103E-03     253.712E-03
            1258            1684     206.407E-03     224.845E-03
            1274            1684     206.407E-03     224.845E-03
            1275            1684     206.407E-03     224.845E-03
            1259            1684     206.407E-03     224.845E-03
            1260            1685     178.111E-03     196.301E-03
            1275            1685     178.111E-03     196.301E-03
            1276            1685     178.111E-03     196.301E-03
            1259            1685     178.111E-03     196.301E-03
            1260            1686     150.444E-03     168.249E-03
            1261            1686     150.444E-03     168.249E-03
            1276            1686     150.444E-03     168.249E-03
            1277            1686     150.444E-03     168.249E-03
            1261            1687     123.848E-03     140.969E-03
            1262            1687     123.848E-03     140.969E-03
            1278            1687     123.848E-03     140.969E-03
            1277            1687     123.848E-03     140.969E-03
            1279            1688     99.3847E-03     114.770E-03
            1262            1688     99.3847E-03     114.770E-03
            1263            1688     99.3847E-03     114.770E-03
            1278            1688     99.3847E-03     114.770E-03
            1263            1689     79.3556E-03     89.1646E-03
            1280            1689     79.3556E-03     89.1646E-03
            1264            1689     79.3556E-03     89.1646E-03
            1279            1689     79.3556E-03     89.1646E-03
            1264            1690     67.3577E-03     67.2377E-03
            1281            1690     67.3577E-03     67.2377E-03
            1265            1690     67.3577E-03     67.2377E-03
            1280            1690     67.3577E-03     67.2377E-03
            1283            1691     523.054E-03     544.376E-03
            1267            1691     523.054E-03     544.376E-03
            1266            1691     523.054E-03     544.376E-03
            1282            1691     523.054E-03     544.376E-03
            1283            1692     428.253E-03     455.806E-03
            1284            1692     428.253E-03     455.806E-03
            1268            1692     428.253E-03     455.806E-03
            1267            1692     428.253E-03     455.806E-03
            1284            1693     376.148E-03     404.475E-03
            1268            1693     376.148E-03     404.475E-03
            1285            1693     376.148E-03     404.475E-03
            1269            1693     376.148E-03     404.475E-03
            1269            1694     341.028E-03     369.919E-03
            1285            1694     341.028E-03     369.919E-03
            1286            1694     341.028E-03     369.919E-03
            1270            1694     341.028E-03     369.919E-03
            1286            1695     310.132E-03     339.530E-03
            1271            1695     310.132E-03     339.530E-03
            1270            1695     310.132E-03     339.530E-03
            1287            1695     310.132E-03     339.530E-03
            1272            1696     281.327E-03     310.885E-03
            1288            1696     281.327E-03     310.885E-03
            1271            1696     281.327E-03     310.885E-03
            1287            1696     281.327E-03     310.885E-03
            1288            1697     252.568E-03     282.276E-03
            1289            1697     252.568E-03     282.276E-03
            1272            1697     252.568E-03     282.276E-03
            1273            1697     252.568E-03     282.276E-03
            1274            1698     223.994E-03     253.712E-03
            1289            1698     223.994E-03     253.712E-03
            1290            1698     223.994E-03     253.712E-03
            1273            1698     223.994E-03     253.712E-03
            1290            1699     195.296E-03     224.999E-03
            1275            1699     195.296E-03     224.999E-03
            1274            1699     195.296E-03     224.999E-03
            1291            1699     195.296E-03     224.999E-03
            1275            1700     166.777E-03     196.353E-03
            1291            1700     166.777E-03     196.353E-03
            1292            1700     166.777E-03     196.353E-03
            1276            1700     166.777E-03     196.353E-03
            1277            1701     138.492E-03     167.781E-03
            1293            1701     138.492E-03     167.781E-03
            1292            1701     138.492E-03     167.781E-03
            1276            1701     138.492E-03     167.781E-03
            1294            1702     110.946E-03     139.440E-03
            1293            1702     110.946E-03     139.440E-03
            1277            1702     110.946E-03     139.440E-03
            1278            1702     110.946E-03     139.440E-03
            1278            1703     84.9716E-03     111.051E-03
            1279            1703     84.9716E-03     111.051E-03
            1294            1703     84.9716E-03     111.051E-03
            1295            1703     84.9716E-03     111.051E-03
            1296            1704     61.7561E-03     83.7877E-03
            1280            1704     61.7561E-03     83.7877E-03
            1295            1704     61.7561E-03     83.7877E-03
            1279            1704     61.7561E-03     83.7877E-03
            1281            1705     46.6708E-03     57.8937E-03
            1296            1705     46.6708E-03     57.8937E-03
            1280            1705     46.6708E-03     57.8937E-03
            1297            1705     46.6708E-03     57.8937E-03
            1283            1706     539.561E-03     549.098E-03
            1282            1706     539.561E-03     549.098E-03
            1298            1706     539.561E-03     549.098E-03
            1299            1706     539.561E-03     549.098E-03
            1283            1707     498.206E-03     500.810E-03
            1284            1707     498.206E-03     500.810E-03
            1300            1707     498.206E-03     500.810E-03
            1299            1707     498.206E-03     500.810E-03
            1301            1708     467.978E-03     472.792E-03
            1284            1708     467.978E-03     472.792E-03
            1285            1708     467.978E-03     472.792E-03
            1300            1708     467.978E-03     472.792E-03
            1302            1709     437.541E-03     445.336E-03
            1286            1709     437.541E-03     445.336E-03
            1285            1709     437.541E-03     445.336E-03
            1301            1709     437.541E-03     445.336E-03
            1286            1710     406.779E-03     416.329E-03
            1287            1710     406.779E-03     416.329E-03
            1303            1710     406.779E-03     416.329E-03
            1302            1710     406.779E-03     416.329E-03
            1303            1711     374.745E-03     385.739E-03
            1287            1711     374.745E-03     385.739E-03
            1304            1711     374.745E-03     385.739E-03
            1288            1711     374.745E-03     385.739E-03
            1305            1712     341.962E-03     353.490E-03
            1304            1712     341.962E-03     353.490E-03
            1289            1712     341.962E-03     353.490E-03
            1288            1712     341.962E-03     353.490E-03
            1306            1713     308.428E-03     320.482E-03
            1305            1713     308.428E-03     320.482E-03
            1290            1713     308.428E-03     320.482E-03
            1289            1713     308.428E-03     320.482E-03
            1290            1714     274.805E-03     287.123E-03
            1291            1714     274.805E-03     287.123E-03
            1307            1714     274.805E-03     287.123E-03
            1306            1714     274.805E-03     287.123E-03
            1291            1715     241.170E-03     253.827E-03
            1308            1715     241.170E-03     253.827E-03
            1307            1715     241.170E-03     253.827E-03
            1292            1715     241.170E-03     253.827E-03
            1309            1716     208.273E-03     221.078E-03
            1293            1716     208.273E-03     221.078E-03
            1292            1716     208.273E-03     221.078E-03
            1308            1716     208.273E-03     221.078E-03
            1309            1717     176.467E-03     189.314E-03
            1310            1717     176.467E-03     189.314E-03
            1294            1717     176.467E-03     189.314E-03
            1293            1717     176.467E-03     189.314E-03
            1295            1718     146.898E-03     159.217E-03
            1294            1718     146.898E-03     159.217E-03
            1310            1718     146.898E-03     159.217E-03
            1311            1718     146.898E-03     159.217E-03
            1312            1719     120.853E-03     132.886E-03
            1311            1719     120.853E-03     132.886E-03
            1295            1719     120.853E-03     132.886E-03
            1296            1719     120.853E-03     132.886E-03
            1312            1720     97.3738E-03     115.296E-03
            1296            1720     97.3738E-03     115.296E-03
            1313            1720     97.3738E-03     115.296E-03
            1297            1720     97.3738E-03     115.296E-03
            1314            1721     588.869E-03     575.960E-03
            1315            1721     588.869E-03     575.960E-03
            1299            1721     588.869E-03     575.960E-03
            1298            1721     588.869E-03     575.960E-03
            1316            1722     595.593E-03     583.549E-03
            1315            1722     595.593E-03     583.549E-03
            1300            1722     595.593E-03     583.549E-03
            1299            1722     595.593E-03     583.549E-03
            1317            1723     581.188E-03     568.563E-03
            1300            1723     581.188E-03     568.563E-03
            1301            1723     581.188E-03     568.563E-03
            1316            1723     581.188E-03     568.563E-03
            1317            1724     552.284E-03     541.348E-03
            1318            1724     552.284E-03     541.348E-03
            1301            1724     552.284E-03     541.348E-03
            1302            1724     552.284E-03     541.348E-03
            1318            1725     517.044E-03     507.385E-03
            1302            1725     517.044E-03     507.385E-03
            1303            1725     517.044E-03     507.385E-03
            1319            1725     517.044E-03     507.385E-03
            1320            1726     478.193E-03     469.395E-03
            1304            1726     478.193E-03     469.395E-03
            1303            1726     478.193E-03     469.395E-03
            1319            1726     478.193E-03     469.395E-03
            1304            1727     437.717E-03     429.784E-03
            1320            1727     437.717E-03     429.784E-03
            1321            1727     437.717E-03     429.784E-03
            1305            1727     437.717E-03     429.784E-03
            1306            1728     396.884E-03     389.298E-03
            1321            1728     396.884E-03     389.298E-03
            1322            1728     396.884E-03     389.298E-03
            1305            1728     396.884E-03     389.298E-03
            1307            1729     355.983E-03     348.848E-03
            1323            1729     355.983E-03     348.848E-03
            1306            1729     355.983E-03     348.848E-03
            1322            1729     355.983E-03     348.848E-03
            1308            1730     315.760E-03     308.901E-03
            1323            1730     315.760E-03     308.901E-03
            1324            1730     315.760E-03     308.901E-03
            1307            1730     315.760E-03     308.901E-03
            1324            1731     276.530E-03     270.146E-03
            1325            1731     276.530E-03     270.146E-03
            1308            1731     276.530E-03     270.146E-03
            1309            1731     276.530E-03     270.146E-03
            1325            1732     239.295E-03     233.580E-03
            1326            1732     239.295E-03     233.580E-03
            1310            1732     239.295E-03     233.580E-03
            1309            1732     239.295E-03     233.580E-03
            1327            1733     204.690E-03     200.814E-03
            1310            1733     204.690E-03     200.814E-03
            1326            1733     204.690E-03     200.814E-03
            1311            1733     204.690E-03     200.814E-03
            1312            1734     173.789E-03     176.352E-03
            1327            1734     173.789E-03     176.352E-03
            1328            1734     173.789E-03     176.352E-03
            1311            1734     173.789E-03     176.352E-03
            1312            1735     149.934E-03     166.299E-03
            1313            1735     149.934E-03     166.299E-03
            1328            1735     149.934E-03     166.299E-03
            1329            1735     149.934E-03     166.299E-03
            1315            1736     644.405E-03     653.602E-03
            1331            1736     644.405E-03     653.602E-03
            1314            1736     644.405E-03     653.602E-03
            1330            1736     644.405E-03     653.602E-03
            1331            1737     629.878E-03     637.909E-03
            1316            1737     629.878E-03     637.909E-03
            1332            1737     629.878E-03     637.909E-03
            1315            1737     629.878E-03     637.909E-03
            1332            1738     606.558E-03     611.215E-03
            1316            1738     606.558E-03     611.215E-03
            1317            1738     606.558E-03     611.215E-03
            1333            1738     606.558E-03     611.215E-03
            1317            1739     570.261E-03     572.128E-03
            1334            1739     570.261E-03     572.128E-03
            1333            1739     570.261E-03     572.128E-03
            1318            1739     570.261E-03     572.128E-03
            1319            1740     527.590E-03     528.310E-03
            1335            1740     527.590E-03     528.310E-03
            1318            1740     527.590E-03     528.310E-03
            1334            1740     527.590E-03     528.310E-03
            1320            1741     482.593E-03     483.173E-03
            1335            1741     482.593E-03     483.173E-03
            1336            1741     482.593E-03     483.173E-03
            1319            1741     482.593E-03     483.173E-03
            1321            1742     437.589E-03     437.919E-03
            1336            1742     437.589E-03     437.919E-03
            1337            1742     437.589E-03     437.919E-03
            1320            1742     437.589E-03     437.919E-03
            1322            1743     392.701E-03     393.063E-03
            1338            1743     392.701E-03     393.063E-03
            1321            1743     392.701E-03     393.063E-03
            1337            1743     392.701E-03     393.063E-03
            1323            1744     348.524E-03     348.819E-03
            1339            1744     348.524E-03     348.819E-03
            1338            1744     348.524E-03     348.819E-03
            1322            1744     348.524E-03     348.819E-03
            1323            1745     305.131E-03     305.415E-03
            1339            1745     305.131E-03     305.415E-03
            1324            1745     305.131E-03     305.415E-03
            1340            1745     305.131E-03     305.415E-03
            1340            1746     262.827E-03     263.287E-03
            1324            1746     262.827E-03     263.287E-03
            1325            1746     262.827E-03     263.287E-03
            1341            1746     262.827E-03     263.287E-03
            1325            1747     222.087E-03     223.293E-03
            1326            1747     222.087E-03     223.293E-03
            1342            1747     222.087E-03     223.293E-03
            1341            1747     222.087E-03     223.293E-03
            1342            1748     183.453E-03     187.291E-03
            1326            1748     183.453E-03     187.291E-03
            1343            1748     183.453E-03     187.291E-03
            1327            1748     183.453E-03     187.291E-03
            1327            1749     149.271E-03     159.501E-03
            1344            1749     149.271E-03     159.501E-03
            1328            1749     149.271E-03     159.501E-03
            1343            1749     149.271E-03     159.501E-03
            1345            1750     129.386E-03     137.634E-03
            1328            1750     129.386E-03     137.634E-03
            1329            1750     129.386E-03     137.634E-03
            1344            1750     129.386E-03     137.634E-03
            1330            1751     700.556E-03     713.168E-03
            1331            1751     700.556E-03     713.168E-03
            1346            1751     700.556E-03     713.168E-03
            1347            1751     700.556E-03     713.168E-03
            1348            1752     661.955E-03     680.562E-03
            1347            1752     661.955E-03     680.562E-03
            1331            1752     661.955E-03     680.562E-03
            1332            1752     661.955E-03     680.562E-03
            1348            1753     623.915E-03     639.496E-03
            1333            1753     623.915E-03     639.496E-03
            1332            1753     623.915E-03     639.496E-03
            1349            1753     623.915E-03     639.496E-03
            1333            1754     578.482E-03     591.085E-03
            1349            1754     578.482E-03     591.085E-03
            1334            1754     578.482E-03     591.085E-03
            1350            1754     578.482E-03     591.085E-03
            1335            1755     529.815E-03     540.837E-03
            1351            1755     529.815E-03     540.837E-03
            1334            1755     529.815E-03     540.837E-03
            1350            1755     529.815E-03     540.837E-03
            1352            1756     481.883E-03     491.572E-03
            1335            1756     481.883E-03     491.572E-03
            1351            1756     481.883E-03     491.572E-03
            1336            1756     481.883E-03     491.572E-03
            1337            1757     434.054E-03     443.075E-03
            1353            1757     434.054E-03     443.075E-03
            1352            1757     434.054E-03     443.075E-03
            1336            1757     434.054E-03     443.075E-03
            1353            1758     387.015E-03     395.618E-03
            1337            1758     387.015E-03     395.618E-03
            1354            1758     387.015E-03     395.618E-03
            1338            1758     387.015E-03     395.618E-03
            1354            1759     340.653E-03     348.975E-03
            1339            1759     340.653E-03     348.975E-03
            1338            1759     340.653E-03     348.975E-03
            1355            1759     340.653E-03     348.975E-03
            1355            1760     295.042E-03     303.209E-03
            1356            1760     295.042E-03     303.209E-03
            1339            1760     295.042E-03     303.209E-03
            1340            1760     295.042E-03     303.209E-03
            1340            1761     250.372E-03     258.572E-03
            1356            1761     250.372E-03     258.572E-03
            1357            1761     250.372E-03     258.572E-03
            1341            1761     250.372E-03     258.572E-03
            1342            1762     206.841E-03     215.557E-03
            1358            1762     206.841E-03     215.557E-03
            1341            1762     206.841E-03     215.557E-03
            1357            1762     206.841E-03     215.557E-03
            1358            1763     165.226E-03     176.066E-03
            1359            1763     165.226E-03     176.066E-03
            1343            1763     165.226E-03     176.066E-03
            1342            1763     165.226E-03     176.066E-03
            1360            1764     129.907E-03     140.063E-03
            1359            1764     129.907E-03     140.063E-03
            1343            1764     129.907E-03     140.063E-03
            1344            1764     129.907E-03     140.063E-03
            1361            1765     106.194E-03     107.884E-03
            1345            1765     106.194E-03     107.884E-03
            1360            1765     106.194E-03     107.884E-03
            1344            1765     106.194E-03     107.884E-03
            1346            1766     747.550E-03     765.583E-03
            1347            1766     747.550E-03     765.583E-03
            1362            1766     747.550E-03     765.583E-03
            1363            1766     747.550E-03     765.583E-03
            1348            1767     691.007E-03     710.468E-03
            1363            1767     691.007E-03     710.468E-03
            1364            1767     691.007E-03     710.468E-03
            1347            1767     691.007E-03     710.468E-03
            1348            1768     630.854E-03     652.249E-03
            1349            1768     630.854E-03     652.249E-03
            1364            1768     630.854E-03     652.249E-03
            1365            1768     630.854E-03     652.249E-03
            1349            1769     574.542E-03     595.904E-03
            1365            1769     574.542E-03     595.904E-03
            1350            1769     574.542E-03     595.904E-03
            1366            1769     574.542E-03     595.904E-03
            1351            1770     524.051E-03     543.611E-03
            1367            1770     524.051E-03     543.611E-03
            1366            1770     524.051E-03     543.611E-03
            1350            1770     524.051E-03     543.611E-03
            1352            1771     474.684E-03     492.885E-03
            1367            1771     474.684E-03     492.885E-03
            1368            1771     474.684E-03     492.885E-03
            1351            1771     474.684E-03     492.885E-03
            1352            1772     426.364E-03     443.862E-03
            1369            1772     426.364E-03     443.862E-03
            1353            1772     426.364E-03     443.862E-03
            1368            1772     426.364E-03     443.862E-03
            1353            1773     378.672E-03     395.656E-03
            1354            1773     378.672E-03     395.656E-03
            1369            1773     378.672E-03     395.656E-03
            1370            1773     378.672E-03     395.656E-03
            1370            1774     331.443E-03     348.168E-03
            1354            1774     331.443E-03     348.168E-03
            1371            1774     331.443E-03     348.168E-03
            1355            1774     331.443E-03     348.168E-03
            1355            1775     284.771E-03     301.284E-03
            1356            1775     284.771E-03     301.284E-03
            1371            1775     284.771E-03     301.284E-03
            1372            1775     284.771E-03     301.284E-03
            1356            1776     238.640E-03     255.046E-03
            1357            1776     238.640E-03     255.046E-03
            1372            1776     238.640E-03     255.046E-03
            1373            1776     238.640E-03     255.046E-03
            1357            1777     193.329E-03     209.914E-03
            1358            1777     193.329E-03     209.914E-03
            1373            1777     193.329E-03     209.914E-03
            1374            1777     193.329E-03     209.914E-03
            1375            1778     150.002E-03     166.165E-03
            1358            1778     150.002E-03     166.165E-03
            1359            1778     150.002E-03     166.165E-03
            1374            1778     150.002E-03     166.165E-03
            1375            1779     110.882E-03     123.774E-03
            1360            1779     110.882E-03     123.774E-03
            1359            1779     110.882E-03     123.774E-03
            1376            1779     110.882E-03     123.774E-03
            1376            1780     82.3758E-03     87.3492E-03
            1377            1780     82.3758E-03     87.3492E-03
            1360            1780     82.3758E-03     87.3492E-03
            1361            1780     82.3758E-03     87.3492E-03
            1379            1781     792.708E-03     802.478E-03
            1362            1781     792.708E-03     802.478E-03
            1378            1781     792.708E-03     802.478E-03
            1363            1781     792.708E-03     802.478E-03
            1363            1782     701.201E-03     722.323E-03
            1380            1782     701.201E-03     722.323E-03
            1364            1782     701.201E-03     722.323E-03
            1379            1782     701.201E-03     722.323E-03
            1381            1783     620.593E-03     647.820E-03
            1380            1783     620.593E-03     647.820E-03
            1364            1783     620.593E-03     647.820E-03
            1365            1783     620.593E-03     647.820E-03
            1382            1784     562.436E-03     589.720E-03
            1381            1784     562.436E-03     589.720E-03
            1365            1784     562.436E-03     589.720E-03
            1366            1784     562.436E-03     589.720E-03
            1383            1785     511.199E-03     537.570E-03
            1366            1785     511.199E-03     537.570E-03
            1367            1785     511.199E-03     537.570E-03
            1382            1785     511.199E-03     537.570E-03
            1383            1786     462.505E-03     488.511E-03
            1384            1786     462.505E-03     488.511E-03
            1367            1786     462.505E-03     488.511E-03
            1368            1786     462.505E-03     488.511E-03
            1368            1787     415.072E-03     440.648E-03
            1384            1787     415.072E-03     440.648E-03
            1369            1787     415.072E-03     440.648E-03
            1385            1787     415.072E-03     440.648E-03
            1369            1788     367.866E-03     393.357E-03
            1386            1788     367.866E-03     393.357E-03
            1385            1788     367.866E-03     393.357E-03
            1370            1788     367.866E-03     393.357E-03
            1370            1789     320.945E-03     346.312E-03
            1387            1789     320.945E-03     346.312E-03
            1371            1789     320.945E-03     346.312E-03
            1386            1789     320.945E-03     346.312E-03
            1371            1790     274.136E-03     299.381E-03
            1387            1790     274.136E-03     299.381E-03
            1372            1790     274.136E-03     299.381E-03
            1388            1790     274.136E-03     299.381E-03
            1373            1791     227.591E-03     252.644E-03
            1372            1791     227.591E-03     252.644E-03
            1389            1791     227.591E-03     252.644E-03
            1388            1791     227.591E-03     252.644E-03
            1390            1792     181.512E-03     206.165E-03
            1374            1792     181.512E-03     206.165E-03
            1389            1792     181.512E-03     206.165E-03
            1373            1792     181.512E-03     206.165E-03
            1391            1793     136.675E-03     159.469E-03
            1375            1793     136.675E-03     159.469E-03
            1390            1793     136.675E-03     159.469E-03
            1374            1793     136.675E-03     159.469E-03
            1375            1794     94.2323E-03     113.773E-03
            1391            1794     94.2323E-03     113.773E-03
            1376            1794     94.2323E-03     113.773E-03
            1392            1794     94.2323E-03     113.773E-03
            1376            1795     59.6772E-03     70.3786E-03
            1377            1795     59.6772E-03     70.3786E-03
            1393            1795     59.6772E-03     70.3786E-03
            1392            1795     59.6772E-03     70.3786E-03
            1394            1796     804.214E-03     826.591E-03
            1378            1796     804.214E-03     826.591E-03
            1395            1796     804.214E-03     826.591E-03
            1379            1796     804.214E-03     826.591E-03
            1395            1797     679.207E-03     708.710E-03
            1379            1797     679.207E-03     708.710E-03
            1396            1797     679.207E-03     708.710E-03
            1380            1797     679.207E-03     708.710E-03
            1380            1798     601.877E-03     631.860E-03
            1381            1798     601.877E-03     631.860E-03
            1396            1798     601.877E-03     631.860E-03
            1397            1798     601.877E-03     631.860E-03
            1382            1799     545.135E-03     576.300E-03
            1381            1799     545.135E-03     576.300E-03
            1397            1799     545.135E-03     576.300E-03
            1398            1799     545.135E-03     576.300E-03
            1398            1800     494.529E-03     526.977E-03
            1383            1800     494.529E-03     526.977E-03
            1399            1800     494.529E-03     526.977E-03
            1382            1800     494.529E-03     526.977E-03
            1399            1801     447.700E-03     480.896E-03
            1400            1801     447.700E-03     480.896E-03
            1383            1801     447.700E-03     480.896E-03
            1384            1801     447.700E-03     480.896E-03
            1384            1802     401.542E-03     435.320E-03
            1401            1802     401.542E-03     435.320E-03
            1400            1802     401.542E-03     435.320E-03
            1385            1802     401.542E-03     435.320E-03
            1386            1803     355.779E-03     389.868E-03
            1401            1803     355.779E-03     389.868E-03
            1402            1803     355.779E-03     389.868E-03
            1385            1803     355.779E-03     389.868E-03
            1403            1804     309.835E-03     344.107E-03
            1402            1804     309.835E-03     344.107E-03
            1386            1804     309.835E-03     344.107E-03
            1387            1804     309.835E-03     344.107E-03
            1388            1805     263.767E-03     298.108E-03
            1387            1805     263.767E-03     298.108E-03
            1404            1805     263.767E-03     298.108E-03
            1403            1805     263.767E-03     298.108E-03
            1404            1806     217.642E-03     251.818E-03
            1388            1806     217.642E-03     251.818E-03
            1405            1806     217.642E-03     251.818E-03
            1389            1806     217.642E-03     251.818E-03
            1406            1807     171.743E-03     205.049E-03
            1390            1807     171.743E-03     205.049E-03
            1405            1807     171.743E-03     205.049E-03
            1389            1807     171.743E-03     205.049E-03
            1407            1808     126.167E-03     157.941E-03
            1406            1808     126.167E-03     157.941E-03
            1391            1808     126.167E-03     157.941E-03
            1390            1808     126.167E-03     157.941E-03
            1407            1809     82.2455E-03     109.777E-03
            1392            1809     82.2455E-03     109.777E-03
            1391            1809     82.2455E-03     109.777E-03
            1408            1809     82.2455E-03     109.777E-03
            1409            1810     41.7304E-03     61.8788E-03
            1408            1810     41.7304E-03     61.8788E-03
            1392            1810     41.7304E-03     61.8788E-03
            1393            1810     41.7304E-03     61.8788E-03
            1411            1811     810.669E-03     823.996E-03
            1394            1811     810.669E-03     823.996E-03
            1410            1811     810.669E-03     823.996E-03
            1395            1811     810.669E-03     823.996E-03
            1411            1812     744.935E-03     747.510E-03
            1412            1812     744.935E-03     747.510E-03
            1396            1812     744.935E-03     747.510E-03
            1395            1812     744.935E-03     747.510E-03
            1396            1813     694.811E-03     699.985E-03
            1397            1813     694.811E-03     699.985E-03
            1412            1813     694.811E-03     699.985E-03
            1413            1813     694.811E-03     699.985E-03
            1398            1814     645.277E-03     654.542E-03
            1413            1814     645.277E-03     654.542E-03
            1414            1814     645.277E-03     654.542E-03
            1397            1814     645.277E-03     654.542E-03
            1414            1815     596.752E-03     608.637E-03
            1415            1815     596.752E-03     608.637E-03
            1399            1815     596.752E-03     608.637E-03
            1398            1815     596.752E-03     608.637E-03
            1399            1816     547.235E-03     561.459E-03
            1415            1816     547.235E-03     561.459E-03
            1416            1816     547.235E-03     561.459E-03
            1400            1816     547.235E-03     561.459E-03
            1416            1817     497.456E-03     512.619E-03
            1417            1817     497.456E-03     512.619E-03
            1401            1817     497.456E-03     512.619E-03
            1400            1817     497.456E-03     512.619E-03
            1401            1818     446.884E-03     462.891E-03
            1417            1818     446.884E-03     462.891E-03
            1418            1818     446.884E-03     462.891E-03
            1402            1818     446.884E-03     462.891E-03
            1403            1819     396.187E-03     412.571E-03
            1418            1819     396.187E-03     412.571E-03
            1419            1819     396.187E-03     412.571E-03
            1402            1819     396.187E-03     412.571E-03
            1420            1820     345.405E-03     362.108E-03
            1403            1820     345.405E-03     362.108E-03
            1419            1820     345.405E-03     362.108E-03
            1404            1820     345.405E-03     362.108E-03
            1405            1821     295.232E-03     311.986E-03
            1404            1821     295.232E-03     311.986E-03
            1420            1821     295.232E-03     311.986E-03
            1421            1821     295.232E-03     311.986E-03
            1422            1822     246.265E-03     262.756E-03
            1406            1822     246.265E-03     262.756E-03
            1405            1822     246.265E-03     262.756E-03
            1421            1822     246.265E-03     262.756E-03
            1406            1823     199.694E-03     215.123E-03
            1422            1823     199.694E-03     215.123E-03
            1407            1823     199.694E-03     215.123E-03
            1423            1823     199.694E-03     215.123E-03
            1424            1824     156.630E-03     171.692E-03
            1408            1824     156.630E-03     171.692E-03
            1423            1824     156.630E-03     171.692E-03
            1407            1824     156.630E-03     171.692E-03
            1408            1825     115.256E-03     137.726E-03
            1409            1825     115.256E-03     137.726E-03
            1425            1825     115.256E-03     137.726E-03
            1424            1825     115.256E-03     137.726E-03
            1410            1826     866.532E-03     855.301E-03
            1411            1826     866.532E-03     855.301E-03
            1427            1826     866.532E-03     855.301E-03
            1426            1826     866.532E-03     855.301E-03
            1412            1827     850.995E-03     842.466E-03
            1427            1827     850.995E-03     842.466E-03
            1428            1827     850.995E-03     842.466E-03
            1411            1827     850.995E-03     842.466E-03
            1412            1828     817.241E-03     808.128E-03
            1428            1828     817.241E-03     808.128E-03
            1429            1828     817.241E-03     808.128E-03
            1413            1828     817.241E-03     808.128E-03
            1429            1829     770.226E-03     763.297E-03
            1414            1829     770.226E-03     763.297E-03
            1430            1829     770.226E-03     763.297E-03
            1413            1829     770.226E-03     763.297E-03
            1415            1830     717.011E-03     711.779E-03
            1431            1830     717.011E-03     711.779E-03
            1430            1830     717.011E-03     711.779E-03
            1414            1830     717.011E-03     711.779E-03
            1415            1831     660.313E-03     656.188E-03
            1432            1831     660.313E-03     656.188E-03
            1431            1831     660.313E-03     656.188E-03
            1416            1831     660.313E-03     656.188E-03
            1417            1832     601.898E-03     598.822E-03
            1416            1832     601.898E-03     598.822E-03
            1432            1832     601.898E-03     598.822E-03
            1433            1832     601.898E-03     598.822E-03
            1433            1833     543.133E-03     540.410E-03
            1434            1833     543.133E-03     540.410E-03
            1417            1833     543.133E-03     540.410E-03
            1418            1833     543.133E-03     540.410E-03
            1434            1834     484.224E-03     481.916E-03
            1435            1834     484.224E-03     481.916E-03
            1419            1834     484.224E-03     481.916E-03
            1418            1834     484.224E-03     481.916E-03
            1419            1835     426.033E-03     423.849E-03
            1435            1835     426.033E-03     423.849E-03
            1436            1835     426.033E-03     423.849E-03
            1420            1835     426.033E-03     423.849E-03
            1436            1836     368.945E-03     367.001E-03
            1437            1836     368.945E-03     367.001E-03
            1421            1836     368.945E-03     367.001E-03
            1420            1836     368.945E-03     367.001E-03
            1437            1837     314.252E-03     312.505E-03
            1421            1837     314.252E-03     312.505E-03
            1422            1837     314.252E-03     312.505E-03
            1438            1837     314.252E-03     312.505E-03
            1439            1838     262.901E-03     262.425E-03
            1422            1838     262.901E-03     262.425E-03
            1438            1838     262.901E-03     262.425E-03
            1423            1838     262.901E-03     262.425E-03
            1423            1839     216.845E-03     222.682E-03
            1439            1839     216.845E-03     222.682E-03
            1440            1839     216.845E-03     222.682E-03
            1424            1839     216.845E-03     222.682E-03
            1440            1840     181.041E-03     202.993E-03
            1425            1840     181.041E-03     202.993E-03
            1441            1840     181.041E-03     202.993E-03
            1424            1840     181.041E-03     202.993E-03
            1443            1841     930.702E-03     944.096E-03
            1427            1841     930.702E-03     944.096E-03
            1426            1841     930.702E-03     944.096E-03
            1442            1841     930.702E-03     944.096E-03
            1443            1842     896.305E-03     910.239E-03
            1428            1842     896.305E-03     910.239E-03
            1427            1842     896.305E-03     910.239E-03
            1444            1842     896.305E-03     910.239E-03
            1445            1843     850.792E-03     861.880E-03
            1428            1843     850.792E-03     861.880E-03
            1429            1843     850.792E-03     861.880E-03
            1444            1843     850.792E-03     861.880E-03
            1429            1844     794.561E-03     802.255E-03
            1446            1844     794.561E-03     802.255E-03
            1445            1844     794.561E-03     802.255E-03
            1430            1844     794.561E-03     802.255E-03
            1447            1845     732.327E-03     738.471E-03
            1430            1845     732.327E-03     738.471E-03
            1431            1845     732.327E-03     738.471E-03
            1446            1845     732.327E-03     738.471E-03
            1448            1846     668.065E-03     673.934E-03
            1431            1846     668.065E-03     673.934E-03
            1432            1846     668.065E-03     673.934E-03
            1447            1846     668.065E-03     673.934E-03
            1449            1847     604.024E-03     609.474E-03
            1448            1847     604.024E-03     609.474E-03
            1433            1847     604.024E-03     609.474E-03
            1432            1847     604.024E-03     609.474E-03
            1450            1848     540.118E-03     545.550E-03
            1434            1848     540.118E-03     545.550E-03
            1449            1848     540.118E-03     545.550E-03
            1433            1848     540.118E-03     545.550E-03
            1434            1849     476.987E-03     482.263E-03
            1451            1849     476.987E-03     482.263E-03
            1435            1849     476.987E-03     482.263E-03
            1450            1849     476.987E-03     482.263E-03
            1436            1850     414.652E-03     419.818E-03
            1451            1850     414.652E-03     419.818E-03
            1435            1850     414.652E-03     419.818E-03
            1452            1850     414.652E-03     419.818E-03
            1452            1851     353.423E-03     358.658E-03
            1437            1851     353.423E-03     358.658E-03
            1436            1851     353.423E-03     358.658E-03
            1453            1851     353.423E-03     358.658E-03
            1454            1852     293.796E-03     299.800E-03
            1453            1852     293.796E-03     299.800E-03
            1438            1852     293.796E-03     299.800E-03
            1437            1852     293.796E-03     299.800E-03
            1454            1853     236.530E-03     245.262E-03
            1439            1853     236.530E-03     245.262E-03
            1455            1853     236.530E-03     245.262E-03
            1438            1853     236.530E-03     245.262E-03
            1455            1854     184.222E-03     201.052E-03
            1439            1854     184.222E-03     201.052E-03
            1440            1854     184.222E-03     201.052E-03
            1456            1854     184.222E-03     201.052E-03
            1440            1855     150.984E-03     165.998E-03
            1456            1855     150.984E-03     165.998E-03
            1441            1855     150.984E-03     165.998E-03
            1457            1855     150.984E-03     165.998E-03
            1442            1856     989.384E-03         1.00838
            1458            1856     989.384E-03         1.00838
            1443            1856     989.384E-03         1.00838
            1459            1856     989.384E-03         1.00838
            1459            1857     933.082E-03     959.207E-03
            1460            1857     933.082E-03     959.207E-03
            1444            1857     933.082E-03     959.207E-03
            1443            1857     933.082E-03     959.207E-03
            1445            1858     873.519E-03     896.435E-03
            1444            1858     873.519E-03     896.435E-03
            1460            1858     873.519E-03     896.435E-03
            1461            1858     873.519E-03     896.435E-03
            1446            1859     806.308E-03     825.796E-03
            1461            1859     806.308E-03     825.796E-03
            1462            1859     806.308E-03     825.796E-03
            1445            1859     806.308E-03     825.796E-03
            1462            1860     737.123E-03     754.366E-03
            1463            1860     737.123E-03     754.366E-03
            1447            1860     737.123E-03     754.366E-03
            1446            1860     737.123E-03     754.366E-03
            1447            1861     669.246E-03     684.626E-03
            1464            1861     669.246E-03     684.626E-03
            1448            1861     669.246E-03     684.626E-03
            1463            1861     669.246E-03     684.626E-03
            1448            1862     601.723E-03     616.162E-03
            1464            1862     601.723E-03     616.162E-03
            1449            1862     601.723E-03     616.162E-03
            1465            1862     601.723E-03     616.162E-03
            1466            1863     535.148E-03     548.991E-03
            1450            1863     535.148E-03     548.991E-03
            1465            1863     535.148E-03     548.991E-03
            1449            1863     535.148E-03     548.991E-03
            1466            1864     469.296E-03     482.767E-03
            1467            1864     469.296E-03     482.767E-03
            1451            1864     469.296E-03     482.767E-03
            1450            1864     469.296E-03     482.767E-03
            1452            1865     404.189E-03     417.464E-03
            1467            1865     404.189E-03     417.464E-03
            1468            1865     404.189E-03     417.464E-03
            1451            1865     404.189E-03     417.464E-03
            1468            1866     339.946E-03     353.305E-03
            1469            1866     339.946E-03     353.305E-03
            1452            1866     339.946E-03     353.305E-03
            1453            1866     339.946E-03     353.305E-03
            1453            1867     276.625E-03     290.786E-03
            1454            1867     276.625E-03     290.786E-03
            1469            1867     276.625E-03     290.786E-03
            1470            1867     276.625E-03     290.786E-03
            1454            1868     214.695E-03     232.281E-03
            1455            1868     214.695E-03     232.281E-03
            1471            1868     214.695E-03     232.281E-03
            1470            1868     214.695E-03     232.281E-03
            1471            1869     159.369E-03     177.797E-03
            1472            1869     159.369E-03     177.797E-03
            1455            1869     159.369E-03     177.797E-03
            1456            1869     159.369E-03     177.797E-03
            1473            1870     119.308E-03     127.707E-03
            1472            1870     119.308E-03     127.707E-03
            1457            1870     119.308E-03     127.707E-03
            1456            1870     119.308E-03     127.707E-03
            1459            1871         1.03662         1.06104
            1474            1871         1.03662         1.06104
            1475            1871         1.03662         1.06104
            1458            1871         1.03662         1.06104
            1476            1872     962.234E-03     989.220E-03
            1475            1872     962.234E-03     989.220E-03
            1460            1872     962.234E-03     989.220E-03
            1459            1872     962.234E-03     989.220E-03
            1461            1873     880.492E-03     909.257E-03
            1477            1873     880.492E-03     909.257E-03
            1476            1873     880.492E-03     909.257E-03
            1460            1873     880.492E-03     909.257E-03
            1461            1874     802.339E-03     830.653E-03
            1462            1874     802.339E-03     830.653E-03
            1478            1874     802.339E-03     830.653E-03
            1477            1874     802.339E-03     830.653E-03
            1463            1875     731.307E-03     757.165E-03
            1478            1875     731.307E-03     757.165E-03
            1479            1875     731.307E-03     757.165E-03
            1462            1875     731.307E-03     757.165E-03
            1464            1876     661.972E-03     685.952E-03
            1479            1876     661.972E-03     685.952E-03
            1463            1876     661.972E-03     685.952E-03
            1480            1876     661.972E-03     685.952E-03
            1465            1877     593.939E-03     616.956E-03
            1481            1877     593.939E-03     616.956E-03
            1480            1877     593.939E-03     616.956E-03
            1464            1877     593.939E-03     616.956E-03
            1465            1878     526.683E-03     549.026E-03
            1482            1878     526.683E-03     549.026E-03
            1481            1878     526.683E-03     549.026E-03
            1466            1878     526.683E-03     549.026E-03
            1482            1879     459.919E-03     481.942E-03
            1483            1879     459.919E-03     481.942E-03
            1466            1879     459.919E-03     481.942E-03
            1467            1879     459.919E-03     481.942E-03
            1468            1880     393.683E-03     415.492E-03
            1483            1880     393.683E-03     415.492E-03
            1484            1880     393.683E-03     415.492E-03
            1467            1880     393.683E-03     415.492E-03
            1484            1881     327.847E-03     349.670E-03
            1485            1881     327.847E-03     349.670E-03
            1468            1881     327.847E-03     349.670E-03
            1469            1881     327.847E-03     349.670E-03
            1470            1882     262.494E-03     284.900E-03
            1485            1882     262.494E-03     284.900E-03
            1486            1882     262.494E-03     284.900E-03
            1469            1882     262.494E-03     284.900E-03
            1486            1883     198.338E-03     221.709E-03
            1487            1883     198.338E-03     221.709E-03
            1470            1883     198.338E-03     221.709E-03
            1471            1883     198.338E-03     221.709E-03
            1487            1884     137.319E-03     159.766E-03
            1471            1884     137.319E-03     159.766E-03
            1488            1884     137.319E-03     159.766E-03
            1472            1884     137.319E-03     159.766E-03
            1488            1885     88.4736E-03     103.056E-03
            1473            1885     88.4736E-03     103.056E-03
            1489            1885     88.4736E-03     103.056E-03
            1472            1885     88.4736E-03     103.056E-03
            1474            1886         1.07980         1.09369
            1475            1886         1.07980         1.09369
            1490            1886         1.07980         1.09369
            1491            1886         1.07980         1.09369
            1475            1887     967.874E-03     994.950E-03
            1492            1887     967.874E-03     994.950E-03
            1476            1887     967.874E-03     994.950E-03
            1491            1887     967.874E-03     994.950E-03
            1493            1888     864.902E-03     898.681E-03
            1477            1888     864.902E-03     898.681E-03
            1476            1888     864.902E-03     898.681E-03
            1492            1888     864.902E-03     898.681E-03
            1494            1889     786.678E-03     819.969E-03
            1478            1889     786.678E-03     819.969E-03
            1493            1889     786.678E-03     819.969E-03
            1477            1889     786.678E-03     819.969E-03
            1479            1890     715.793E-03     747.809E-03
            1494            1890     715.793E-03     747.809E-03
            1478            1890     715.793E-03     747.809E-03
            1495            1890     715.793E-03     747.809E-03
            1495            1891     647.770E-03     679.320E-03
            1479            1891     647.770E-03     679.320E-03
            1496            1891     647.770E-03     679.320E-03
            1480            1891     647.770E-03     679.320E-03
            1496            1892     581.235E-03     612.227E-03
            1481            1892     581.235E-03     612.227E-03
            1480            1892     581.235E-03     612.227E-03
            1497            1892     581.235E-03     612.227E-03
            1482            1893     514.925E-03     545.838E-03
            1497            1893     514.925E-03     545.838E-03
            1481            1893     514.925E-03     545.838E-03
            1498            1893     514.925E-03     545.838E-03
            1482            1894     448.922E-03     479.698E-03
            1499            1894     448.922E-03     479.698E-03
            1483            1894     448.922E-03     479.698E-03
            1498            1894     448.922E-03     479.698E-03
            1484            1895     382.964E-03     413.638E-03
            1500            1895     382.964E-03     413.638E-03
            1483            1895     382.964E-03     413.638E-03
            1499            1895     382.964E-03     413.638E-03
            1500            1896     317.139E-03     347.690E-03
            1501            1896     317.139E-03     347.690E-03
            1485            1896     317.139E-03     347.690E-03
            1484            1896     317.139E-03     347.690E-03
            1486            1897     251.499E-03     281.958E-03
            1502            1897     251.499E-03     281.958E-03
            1485            1897     251.499E-03     281.958E-03
            1501            1897     251.499E-03     281.958E-03
            1503            1898     186.668E-03     215.661E-03
            1487            1898     186.668E-03     215.661E-03
            1502            1898     186.668E-03     215.661E-03
            1486            1898     186.668E-03     215.661E-03
            1488            1899     122.388E-03     150.729E-03
            1503            1899     122.388E-03     150.729E-03
            1504            1899     122.388E-03     150.729E-03
            1487            1899     122.388E-03     150.729E-03
            1488            1900     62.3335E-03     88.3229E-03
            1505            1900     62.3335E-03     88.3229E-03
            1489            1900     62.3335E-03     88.3229E-03
            1504            1900     62.3335E-03     88.3229E-03
            1491            1901         1.08298         1.10724
            1507            1901         1.08298         1.10724
            1506            1901         1.08298         1.10724
            1490            1901         1.08298         1.10724
            1492            1902     934.891E-03     968.045E-03
            1491            1902     934.891E-03     968.045E-03
            1508            1902     934.891E-03     968.045E-03
            1507            1902     934.891E-03     968.045E-03
            1493            1903     838.021E-03     871.709E-03
            1492            1903     838.021E-03     871.709E-03
            1508            1903     838.021E-03     871.709E-03
            1509            1903     838.021E-03     871.709E-03
            1510            1904     763.024E-03     798.458E-03
            1509            1904     763.024E-03     798.458E-03
            1493            1904     763.024E-03     798.458E-03
            1494            1904     763.024E-03     798.458E-03
            1511            1905     694.308E-03     731.513E-03
            1510            1905     694.308E-03     731.513E-03
            1494            1905     694.308E-03     731.513E-03
            1495            1905     694.308E-03     731.513E-03
            1511            1906     629.517E-03     667.784E-03
            1495            1906     629.517E-03     667.784E-03
            1512            1906     629.517E-03     667.784E-03
            1496            1906     629.517E-03     667.784E-03
            1512            1907     565.297E-03     604.403E-03
            1496            1907     565.297E-03     604.403E-03
            1497            1907     565.297E-03     604.403E-03
            1513            1907     565.297E-03     604.403E-03
            1514            1908     501.452E-03     540.965E-03
            1497            1908     501.452E-03     540.965E-03
            1513            1908     501.452E-03     540.965E-03
            1498            1908     501.452E-03     540.965E-03
            1498            1909     437.294E-03     477.070E-03
            1515            1909     437.294E-03     477.070E-03
            1499            1909     437.294E-03     477.070E-03
            1514            1909     437.294E-03     477.070E-03
            1499            1910     372.947E-03     412.798E-03
            1515            1910     372.947E-03     412.798E-03
            1516            1910     372.947E-03     412.798E-03
            1500            1910     372.947E-03     412.798E-03
            1500            1911     308.468E-03     348.134E-03
            1516            1911     308.468E-03     348.134E-03
            1517            1911     308.468E-03     348.134E-03
            1501            1911     308.468E-03     348.134E-03
            1517            1912     244.248E-03     282.851E-03
            1518            1912     244.248E-03     282.851E-03
            1502            1912     244.248E-03     282.851E-03
            1501            1912     244.248E-03     282.851E-03
            1502            1913     180.371E-03     217.152E-03
            1518            1913     180.371E-03     217.152E-03
            1503            1913     180.371E-03     217.152E-03
            1519            1913     180.371E-03     217.152E-03
            1519            1914     118.471E-03     150.430E-03
            1520            1914     118.471E-03     150.430E-03
            1504            1914     118.471E-03     150.430E-03
            1503            1914     118.471E-03     150.430E-03
            1521            1915     57.3921E-03     87.3059E-03
            1505            1915     57.3921E-03     87.3059E-03
            1520            1915     57.3921E-03     87.3059E-03
            1504            1915     57.3921E-03     87.3059E-03
            1507            1916         1.08140         1.10026
            1523            1916         1.08140         1.10026
            1506            1916         1.08140         1.10026
            1522            1916         1.08140         1.10026
            1508            1917     994.821E-03     999.903E-03
            1524            1917     994.821E-03     999.903E-03
            1507            1917     994.821E-03     999.903E-03
            1523            1917     994.821E-03     999.903E-03
            1508            1918     927.391E-03     935.226E-03
            1524            1918     927.391E-03     935.226E-03
            1525            1918     927.391E-03     935.226E-03
            1509            1918     927.391E-03     935.226E-03
            1526            1919     859.032E-03     872.053E-03
            1525            1919     859.032E-03     872.053E-03
            1510            1919     859.032E-03     872.053E-03
            1509            1919     859.032E-03     872.053E-03
            1526            1920     792.658E-03     808.573E-03
            1527            1920     792.658E-03     808.573E-03
            1511            1920     792.658E-03     808.573E-03
            1510            1920     792.658E-03     808.573E-03
            1512            1921     724.891E-03     743.173E-03
            1528            1921     724.891E-03     743.173E-03
            1527            1921     724.891E-03     743.173E-03
            1511            1921     724.891E-03     743.173E-03
            1512            1922     657.107E-03     676.232E-03
            1528            1922     657.107E-03     676.232E-03
            1513            1922     657.107E-03     676.232E-03
            1529            1922     657.107E-03     676.232E-03
            1530            1923     588.507E-03     608.423E-03
            1514            1923     588.507E-03     608.423E-03
            1529            1923     588.507E-03     608.423E-03
            1513            1923     588.507E-03     608.423E-03
            1530            1924     519.669E-03     539.754E-03
            1531            1924     519.669E-03     539.754E-03
            1515            1924     519.669E-03     539.754E-03
            1514            1924     519.669E-03     539.754E-03
            1531            1925     450.629E-03     471.087E-03
            1516            1925     450.629E-03     471.087E-03
            1532            1925     450.629E-03     471.087E-03
            1515            1925     450.629E-03     471.087E-03
            1533            1926     382.123E-03     402.525E-03
            1516            1926     382.123E-03     402.525E-03
            1517            1926     382.123E-03     402.525E-03
            1532            1926     382.123E-03     402.525E-03
            1533            1927     314.923E-03     334.966E-03
            1517            1927     314.923E-03     334.966E-03
            1534            1927     314.923E-03     334.966E-03
            1518            1927     314.923E-03     334.966E-03
            1518            1928     250.554E-03     268.874E-03
            1519            1928     250.554E-03     268.874E-03
            1534            1928     250.554E-03     268.874E-03
            1535            1928     250.554E-03     268.874E-03
            1535            1929     191.225E-03     207.814E-03
            1519            1929     191.225E-03     207.814E-03
            1520            1929     191.225E-03     207.814E-03
            1536            1929     191.225E-03     207.814E-03
            1536            1930     136.835E-03     159.594E-03
            1521            1930     136.835E-03     159.594E-03
            1520            1930     136.835E-03     159.594E-03
            1537            1930     136.835E-03     159.594E-03
            1539            1931         1.14474         1.13834
            1523            1931         1.14474         1.13834
            1538            1931         1.14474         1.13834
            1522            1931         1.14474         1.13834
            1524            1932         1.10829         1.10389
            1540            1932         1.10829         1.10389
            1523            1932         1.10829         1.10389
            1539            1932         1.10829         1.10389
            1524            1933         1.05143         1.04839
            1540            1933         1.05143         1.04839
            1525            1933         1.05143         1.04839
            1541            1933         1.05143         1.04839
            1525            1934     984.260E-03     982.180E-03
            1541            1934     984.260E-03     982.180E-03
            1542            1934     984.260E-03     982.180E-03
            1526            1934     984.260E-03     982.180E-03
            1527            1935     910.274E-03     909.579E-03
            1526            1935     910.274E-03     909.579E-03
            1543            1935     910.274E-03     909.579E-03
            1542            1935     910.274E-03     909.579E-03
            1528            1936     833.954E-03     834.430E-03
            1543            1936     833.954E-03     834.430E-03
            1544            1936     833.954E-03     834.430E-03
            1527            1936     833.954E-03     834.430E-03
            1545            1937     756.970E-03     757.677E-03
            1528            1937     756.970E-03     757.677E-03
            1544            1937     756.970E-03     757.677E-03
            1529            1937     756.970E-03     757.677E-03
            1529            1938     679.404E-03     680.469E-03
            1545            1938     679.404E-03     680.469E-03
            1546            1938     679.404E-03     680.469E-03
            1530            1938     679.404E-03     680.469E-03
            1531            1939     602.040E-03     603.093E-03
            1530            1939     602.040E-03     603.093E-03
            1547            1939     602.040E-03     603.093E-03
            1546            1939     602.040E-03     603.093E-03
            1532            1940     525.045E-03     526.223E-03
            1547            1940     525.045E-03     526.223E-03
            1548            1940     525.045E-03     526.223E-03
            1531            1940     525.045E-03     526.223E-03
            1548            1941     449.149E-03     450.325E-03
            1532            1941     449.149E-03     450.325E-03
            1549            1941     449.149E-03     450.325E-03
            1533            1941     449.149E-03     450.325E-03
            1533            1942     375.398E-03     376.764E-03
            1549            1942     375.398E-03     376.764E-03
            1550            1942     375.398E-03     376.764E-03
            1534            1942     375.398E-03     376.764E-03
            1535            1943     305.253E-03     307.260E-03
            1551            1943     305.253E-03     307.260E-03
            1550            1943     305.253E-03     307.260E-03
            1534            1943     305.253E-03     307.260E-03
            1551            1944     241.361E-03     248.216E-03
            1552            1944     241.361E-03     248.216E-03
            1535            1944     241.361E-03     248.216E-03
            1536            1944     241.361E-03     248.216E-03
            1537            1945     190.280E-03     214.479E-03
            1553            1945     190.280E-03     214.479E-03
            1552            1945     190.280E-03     214.479E-03
            1536            1945     190.280E-03     214.479E-03
            1555            1946         1.21903         1.23592
            1538            1946         1.21903         1.23592
            1554            1946         1.21903         1.23592
            1539            1946         1.21903         1.23592
            1555            1947         1.15830         1.18212
            1540            1947         1.15830         1.18212
            1556            1947         1.15830         1.18212
            1539            1947         1.15830         1.18212
            1541            1948         1.08699         1.10488
            1557            1948         1.08699         1.10488
            1540            1948         1.08699         1.10488
            1556            1948         1.08699         1.10488
            1541            1949         1.00541         1.01975
            1557            1949         1.00541         1.01975
            1558            1949         1.00541         1.01975
            1542            1949         1.00541         1.01975
            1542            1950     921.086E-03     934.180E-03
            1543            1950     921.086E-03     934.180E-03
            1559            1950     921.086E-03     934.180E-03
            1558            1950     921.086E-03     934.180E-03
            1543            1951     837.902E-03     850.055E-03
            1559            1951     837.902E-03     850.055E-03
            1560            1951     837.902E-03     850.055E-03
            1544            1951     837.902E-03     850.055E-03
            1545            1952     754.871E-03     766.830E-03
            1561            1952     754.871E-03     766.830E-03
            1544            1952     754.871E-03     766.830E-03
            1560            1952     754.871E-03     766.830E-03
            1561            1953     672.733E-03     684.452E-03
            1545            1953     672.733E-03     684.452E-03
            1562            1953     672.733E-03     684.452E-03
            1546            1953     672.733E-03     684.452E-03
            1547            1954     591.115E-03     602.739E-03
            1563            1954     591.115E-03     602.739E-03
            1546            1954     591.115E-03     602.739E-03
            1562            1954     591.115E-03     602.739E-03
            1547            1955     510.351E-03     521.640E-03
            1564            1955     510.351E-03     521.640E-03
            1548            1955     510.351E-03     521.640E-03
            1563            1955     510.351E-03     521.640E-03
            1565            1956     430.394E-03     441.483E-03
            1548            1956     430.394E-03     441.483E-03
            1549            1956     430.394E-03     441.483E-03
            1564            1956     430.394E-03     441.483E-03
            1565            1957     351.823E-03     363.019E-03
            1549            1957     351.823E-03     363.019E-03
            1566            1957     351.823E-03     363.019E-03
            1550            1957     351.823E-03     363.019E-03
            1566            1958     274.912E-03     288.454E-03
            1551            1958     274.912E-03     288.454E-03
            1550            1958     274.912E-03     288.454E-03
            1567            1958     274.912E-03     288.454E-03
            1552            1959     202.428E-03     223.792E-03
            1568            1959     202.428E-03     223.792E-03
            1551            1959     202.428E-03     223.792E-03
            1567            1959     202.428E-03     223.792E-03
            1569            1960     151.116E-03     170.365E-03
            1552            1960     151.116E-03     170.365E-03
            1553            1960     151.116E-03     170.365E-03
            1568            1960     151.116E-03     170.365E-03
            1554            1961         1.27343         1.30782
            1555            1961         1.27343         1.30782
            1571            1961         1.27343         1.30782
            1570            1961         1.27343         1.30782
            1556            1962         1.19399         1.22621
            1572            1962         1.19399         1.22621
            1555            1962         1.19399         1.22621
            1571            1962         1.19399         1.22621
            1557            1963         1.10082         1.13176
            1572            1963         1.10082         1.13176
            1573            1963         1.10082         1.13176
            1556            1963         1.10082         1.13176
            1574            1964         1.00716         1.03590
            1557            1964         1.00716         1.03590
            1573            1964         1.00716         1.03590
            1558            1964         1.00716         1.03590
            1574            1965     920.034E-03     945.463E-03
            1558            1965     920.034E-03     945.463E-03
            1559            1965     920.034E-03     945.463E-03
            1575            1965     920.034E-03     945.463E-03
            1575            1966     833.608E-03     857.485E-03
            1559            1966     833.608E-03     857.485E-03
            1560            1966     833.608E-03     857.485E-03
            1576            1966     833.608E-03     857.485E-03
            1561            1967     748.551E-03     771.720E-03
            1577            1967     748.551E-03     771.720E-03
            1576            1967     748.551E-03     771.720E-03
            1560            1967     748.551E-03     771.720E-03
            1561            1968     664.165E-03     687.033E-03
            1562            1968     664.165E-03     687.033E-03
            1577            1968     664.165E-03     687.033E-03
            1578            1968     664.165E-03     687.033E-03
            1562            1969     580.519E-03     603.117E-03
            1563            1969     580.519E-03     603.117E-03
            1578            1969     580.519E-03     603.117E-03
            1579            1969     580.519E-03     603.117E-03
            1563            1970     497.404E-03     519.745E-03
            1580            1970     497.404E-03     519.745E-03
            1564            1970     497.404E-03     519.745E-03
            1579            1970     497.404E-03     519.745E-03
            1580            1971     414.975E-03     437.052E-03
            1564            1971     414.975E-03     437.052E-03
            1565            1971     414.975E-03     437.052E-03
            1581            1971     414.975E-03     437.052E-03
            1582            1972     333.038E-03     355.231E-03
            1565            1972     333.038E-03     355.231E-03
            1566            1972     333.038E-03     355.231E-03
            1581            1972     333.038E-03     355.231E-03
            1582            1973     251.535E-03     276.417E-03
            1567            1973     251.535E-03     276.417E-03
            1566            1973     251.535E-03     276.417E-03
            1583            1973     251.535E-03     276.417E-03
            1568            1974     173.609E-03     202.433E-03
            1567            1974     173.609E-03     202.433E-03
            1584            1974     173.609E-03     202.433E-03
            1583            1974     173.609E-03     202.433E-03
            1584            1975     111.193E-03     129.335E-03
            1568            1975     111.193E-03     129.335E-03
            1569            1975     111.193E-03     129.335E-03
            1585            1975     111.193E-03     129.335E-03
            1586            1976         1.32070         1.33871
            1587            1976         1.32070         1.33871
            1570            1976         1.32070         1.33871
            1571            1976         1.32070         1.33871
            1571            1977         1.19916         1.23479
            1588            1977         1.19916         1.23479
            1587            1977         1.19916         1.23479
            1572            1977         1.19916         1.23479
            1588            1978         1.08456         1.12449
            1589            1978         1.08456         1.12449
            1572            1978         1.08456         1.12449
            1573            1978         1.08456         1.12449
            1590            1979     992.694E-03         1.03024
            1589            1979     992.694E-03         1.03024
            1573            1979     992.694E-03         1.03024
            1574            1979     992.694E-03         1.03024
            1591            1980     905.709E-03     941.242E-03
            1575            1980     905.709E-03     941.242E-03
            1590            1980     905.709E-03     941.242E-03
            1574            1980     905.709E-03     941.242E-03
            1576            1981     820.767E-03     855.447E-03
            1575            1981     820.767E-03     855.447E-03
            1592            1981     820.767E-03     855.447E-03
            1591            1981     820.767E-03     855.447E-03
            1592            1982     736.626E-03     770.896E-03
            1577            1982     736.626E-03     770.896E-03
            1576            1982     736.626E-03     770.896E-03
            1593            1982     736.626E-03     770.896E-03
            1578            1983     652.744E-03     686.913E-03
            1593            1983     652.744E-03     686.913E-03
            1594            1983     652.744E-03     686.913E-03
            1577            1983     652.744E-03     686.913E-03
            1595            1984     569.134E-03     603.215E-03
            1594            1984     569.134E-03     603.215E-03
            1579            1984     569.134E-03     603.215E-03
            1578            1984     569.134E-03     603.215E-03
            1579            1985     485.735E-03     519.656E-03
            1595            1985     485.735E-03     519.656E-03
            1580            1985     485.735E-03     519.656E-03
            1596            1985     485.735E-03     519.656E-03
            1581            1986     402.506E-03     436.221E-03
            1597            1986     402.506E-03     436.221E-03
            1596            1986     402.506E-03     436.221E-03
            1580            1986     402.506E-03     436.221E-03
            1597            1987     319.420E-03     353.223E-03
            1582            1987     319.420E-03     353.223E-03
            1598            1987     319.420E-03     353.223E-03
            1581            1987     319.420E-03     353.223E-03
            1582            1988     236.739E-03     270.866E-03
            1599            1988     236.739E-03     270.866E-03
            1583            1988     236.739E-03     270.866E-03
            1598            1988     236.739E-03     270.866E-03
            1600            1989     155.356E-03     188.354E-03
            1584            1989     155.356E-03     188.354E-03
            1599            1989     155.356E-03     188.354E-03
            1583            1989     155.356E-03     188.354E-03
            1585            1990     77.2371E-03     113.546E-03
            1601            1990     77.2371E-03     113.546E-03
            1584            1990     77.2371E-03     113.546E-03
            1600            1990     77.2371E-03     113.546E-03
            1602            1991         1.31764         1.34634
            1603            1991         1.31764         1.34634
            1586            1991         1.31764         1.34634
            1587            1991         1.31764         1.34634
            1588            1992         1.15974         1.19916
            1604            1992         1.15974         1.19916
            1603            1992         1.15974         1.19916
            1587            1992         1.15974         1.19916
            1588            1993         1.05207         1.09342
            1604            1993         1.05207         1.09342
            1605            1993         1.05207         1.09342
            1589            1993         1.05207         1.09342
            1605            1994     965.181E-03         1.00782
            1590            1994     965.181E-03         1.00782
            1589            1994     965.181E-03         1.00782
            1606            1994     965.181E-03         1.00782
            1606            1995     882.032E-03     926.241E-03
            1590            1995     882.032E-03     926.241E-03
            1591            1995     882.032E-03     926.241E-03
            1607            1995     882.032E-03     926.241E-03
            1592            1996     801.369E-03     846.351E-03
            1608            1996     801.369E-03     846.351E-03
            1591            1996     801.369E-03     846.351E-03
            1607            1996     801.369E-03     846.351E-03
            1593            1997     720.458E-03     765.839E-03
            1609            1997     720.458E-03     765.839E-03
            1592            1997     720.458E-03     765.839E-03
            1608            1997     720.458E-03     765.839E-03
            1594            1998     639.347E-03     684.970E-03
            1593            1998     639.347E-03     684.970E-03
            1609            1998     639.347E-03     684.970E-03
            1610            1998     639.347E-03     684.970E-03
            1595            1999     557.717E-03     603.434E-03
            1610            1999     557.717E-03     603.434E-03
            1611            1999     557.717E-03     603.434E-03
            1594            1999     557.717E-03     603.434E-03
            1612            2000     475.807E-03     521.629E-03
            1595            2000     475.807E-03     521.629E-03
            1596            2000     475.807E-03     521.629E-03
            1611            2000     475.807E-03     521.629E-03
            1596            2001     393.665E-03     439.413E-03
            1613            2001     393.665E-03     439.413E-03
            1612            2001     393.665E-03     439.413E-03
            1597            2001     393.665E-03     439.413E-03
            1597            2002     311.705E-03     357.145E-03
            1598            2002     311.705E-03     357.145E-03
            1613            2002     311.705E-03     357.145E-03
            1614            2002     311.705E-03     357.145E-03
            1598            2003     230.652E-03     273.846E-03
            1615            2003     230.652E-03     273.846E-03
            1599            2003     230.652E-03     273.846E-03
            1614            2003     230.652E-03     273.846E-03
            1600            2004     151.191E-03     190.231E-03
            1616            2004     151.191E-03     190.231E-03
            1615            2004     151.191E-03     190.231E-03
            1599            2004     151.191E-03     190.231E-03
            1601            2005     73.7513E-03     111.736E-03
            1617            2005     73.7513E-03     111.736E-03
            1600            2005     73.7513E-03     111.736E-03
            1616            2005     73.7513E-03     111.736E-03
            1689            2042         1.33809         1.34787
            1674            2042         1.33809         1.34787
            1690            2042         1.33809         1.34787
            1673            2042         1.33809         1.34787
            1690            2043         1.27734         1.28375
            1691            2043         1.27734         1.28375
            1674            2043         1.27734         1.28375
            1675            2043         1.27734         1.28375
            1692            2044         1.20226         1.20902
            1675            2044         1.20226         1.20902
            1676            2044         1.20226         1.20902
            1691            2044         1.20226         1.20902
            1676            2045         1.11717         1.12419
            1677            2045         1.11717         1.12419
            1693            2045         1.11717         1.12419
            1692            2045         1.11717         1.12419
            1677            2046         1.02888         1.03578
            1678            2046         1.02888         1.03578
            1694            2046         1.02888         1.03578
            1693            2046         1.02888         1.03578
            1694            2047     939.697E-03     946.559E-03
            1695            2047     939.697E-03     946.559E-03
            1678            2047     939.697E-03     946.559E-03
            1679            2047     939.697E-03     946.559E-03
            1680            2048     849.916E-03     855.826E-03
            1696            2048     849.916E-03     855.826E-03
            1695            2048     849.916E-03     855.826E-03
            1679            2048     849.916E-03     855.826E-03
            1681            2049     759.684E-03     765.368E-03
            1696            2049     759.684E-03     765.368E-03
            1697            2049     759.684E-03     765.368E-03
            1680            2049     759.684E-03     765.368E-03
            1697            2050     669.726E-03     674.679E-03
            1682            2050     669.726E-03     674.679E-03
            1698            2050     669.726E-03     674.679E-03
            1681            2050     669.726E-03     674.679E-03
            1699            2051     580.137E-03     584.899E-03
            1682            2051     580.137E-03     584.899E-03
            1683            2051     580.137E-03     584.899E-03
            1698            2051     580.137E-03     584.899E-03
            1684            2052     491.637E-03     496.118E-03
            1700            2052     491.637E-03     496.118E-03
            1683            2052     491.637E-03     496.118E-03
            1699            2052     491.637E-03     496.118E-03
            1700            2053     404.851E-03     409.618E-03
            1701            2053     404.851E-03     409.618E-03
            1685            2053     404.851E-03     409.618E-03
            1684            2053     404.851E-03     409.618E-03
            1702            2054     320.895E-03     326.067E-03
            1701            2054     320.895E-03     326.067E-03
            1686            2054     320.895E-03     326.067E-03
            1685            2054     320.895E-03     326.067E-03
            1703            2055     242.541E-03     250.431E-03
            1687            2055     242.541E-03     250.431E-03
            1686            2055     242.541E-03     250.431E-03
            1702            2055     242.541E-03     250.431E-03
            1704            2056     168.933E-03     185.128E-03
            1687            2056     168.933E-03     185.128E-03
            1703            2056     168.933E-03     185.128E-03
            1688            2056     168.933E-03     185.128E-03
            1706            2057         1.43016         1.44063
            1705            2057         1.43016         1.44063
            1689            2057         1.43016         1.44063
            1690            2057         1.43016         1.44063
            1707            2058         1.37769         1.38209
            1706            2058         1.37769         1.38209
            1691            2058         1.37769         1.38209
            1690            2058         1.37769         1.38209
            1692            2059         1.29379         1.29701
            1691            2059         1.29379         1.29701
            1708            2059         1.29379         1.29701
            1707            2059         1.29379         1.29701
            1709            2060         1.19972         1.20322
            1708            2060         1.19972         1.20322
            1693            2060         1.19972         1.20322
            1692            2060         1.19972         1.20322
            1694            2061         1.10543         1.10767
            1693            2061         1.10543         1.10767
            1710            2061         1.10543         1.10767
            1709            2061         1.10543         1.10767
            1694            2062         1.00977         1.01170
            1711            2062         1.00977         1.01170
            1710            2062         1.00977         1.01170
            1695            2062         1.00977         1.01170
            1711            2063     914.387E-03     915.330E-03
            1696            2063     914.387E-03     915.330E-03
            1712            2063     914.387E-03     915.330E-03
            1695            2063     914.387E-03     915.330E-03
            1696            2064     818.796E-03     819.183E-03
            1697            2064     818.796E-03     819.183E-03
            1712            2064     818.796E-03     819.183E-03
            1713            2064     818.796E-03     819.183E-03
            1713            2065     723.865E-03     723.441E-03
            1697            2065     723.865E-03     723.441E-03
            1698            2065     723.865E-03     723.441E-03
            1714            2065     723.865E-03     723.441E-03
            1698            2066     629.942E-03     628.938E-03
            1714            2066     629.942E-03     628.938E-03
            1715            2066     629.942E-03     628.938E-03
            1699            2066     629.942E-03     628.938E-03
            1699            2067     537.896E-03     536.149E-03
            1715            2067     537.896E-03     536.149E-03
            1700            2067     537.896E-03     536.149E-03
            1716            2067     537.896E-03     536.149E-03
            1716            2068     449.149E-03     447.171E-03
            1717            2068     449.149E-03     447.171E-03
            1700            2068     449.149E-03     447.171E-03
            1701            2068     449.149E-03     447.171E-03
            1701            2069     365.187E-03     363.406E-03
            1702            2069     365.187E-03     363.406E-03
            1717            2069     365.187E-03     363.406E-03
            1718            2069     365.187E-03     363.406E-03
            1718            2070     290.262E-03     293.276E-03
            1703            2070     290.262E-03     293.276E-03
            1702            2070     290.262E-03     293.276E-03
            1719            2070     290.262E-03     293.276E-03
            1720            2071     227.198E-03     244.344E-03
            1704            2071     227.198E-03     244.344E-03
            1719            2071     227.198E-03     244.344E-03
            1703            2071     227.198E-03     244.344E-03
            1705            2072         1.52216         1.54007
            1706            2072         1.52216         1.54007
            1721            2072         1.52216         1.54007
            1722            2072         1.52216         1.54007
            1722            2073         1.41553         1.44762
            1706            2073         1.41553         1.44762
            1707            2073         1.41553         1.44762
            1723            2073         1.41553         1.44762
            1707            2074         1.29937         1.33051
            1723            2074         1.29937         1.33051
            1708            2074         1.29937         1.33051
            1724            2074         1.29937         1.33051
            1709            2075         1.19561         1.22427
            1725            2075         1.19561         1.22427
            1724            2075         1.19561         1.22427
            1708            2075         1.19561         1.22427
            1709            2076         1.09331         1.12105
            1710            2076         1.09331         1.12105
            1726            2076         1.09331         1.12105
            1725            2076         1.09331         1.12105
            1710            2077     992.135E-03         1.01957
            1726            2077     992.135E-03         1.01957
            1711            2077     992.135E-03         1.01957
            1727            2077     992.135E-03         1.01957
            1727            2078     891.798E-03     919.463E-03
            1728            2078     891.798E-03     919.463E-03
            1711            2078     891.798E-03     919.463E-03
            1712            2078     891.798E-03     919.463E-03
            1713            2079     792.316E-03     819.829E-03
            1728            2079     792.316E-03     819.829E-03
            1729            2079     792.316E-03     819.829E-03
            1712            2079     792.316E-03     819.829E-03
            1729            2080     693.463E-03     721.062E-03
            1714            2080     693.463E-03     721.062E-03
            1730            2080     693.463E-03     721.062E-03
            1713            2080     693.463E-03     721.062E-03
            1714            2081     595.655E-03     622.962E-03
            1715            2081     595.655E-03     622.962E-03
            1731            2081     595.655E-03     622.962E-03
            1730            2081     595.655E-03     622.962E-03
            1715            2082     499.341E-03     526.146E-03
            1716            2082     499.341E-03     526.146E-03
            1731            2082     499.341E-03     526.146E-03
            1732            2082     499.341E-03     526.146E-03
            1717            2083     405.774E-03     431.163E-03
            1716            2083     405.774E-03     431.163E-03
            1733            2083     405.774E-03     431.163E-03
            1732            2083     405.774E-03     431.163E-03
            1717            2084     315.950E-03     340.800E-03
            1734            2084     315.950E-03     340.800E-03
            1718            2084     315.950E-03     340.800E-03
            1733            2084     315.950E-03     340.800E-03
            1718            2085     233.619E-03     258.454E-03
            1735            2085     233.619E-03     258.454E-03
            1719            2085     233.619E-03     258.454E-03
            1734            2085     233.619E-03     258.454E-03
            1719            2086     168.290E-03     179.701E-03
            1736            2086     168.290E-03     179.701E-03
            1720            2086     168.290E-03     179.701E-03
            1735            2086     168.290E-03     179.701E-03
            1721            2087         1.53718         1.57707
            1737            2087         1.53718         1.57707
            1738            2087         1.53718         1.57707
            1722            2087         1.53718         1.57707
            1738            2088         1.38600         1.43575
            1739            2088         1.38600         1.43575
            1722            2088         1.38600         1.43575
            1723            2088         1.38600         1.43575
            1723            2089         1.27093         1.32270
            1740            2089         1.27093         1.32270
            1724            2089         1.27093         1.32270
            1739            2089         1.27093         1.32270
            1741            2090         1.16966         1.22147
            1740            2090         1.16966         1.22147
            1724            2090         1.16966         1.22147
            1725            2090         1.16966         1.22147
            1725            2091         1.06863         1.12132
            1741            2091         1.06863         1.12132
            1742            2091         1.06863         1.12132
            1726            2091         1.06863         1.12132
            1742            2092     968.105E-03         1.02193
            1743            2092     968.105E-03         1.02193
            1726            2092     968.105E-03         1.02193
            1727            2092     968.105E-03         1.02193
            1743            2093     867.567E-03     921.929E-03
            1728            2093     867.567E-03     921.929E-03
            1727            2093     867.567E-03     921.929E-03
            1744            2093     867.567E-03     921.929E-03
            1728            2094     766.939E-03     822.369E-03
            1745            2094     766.939E-03     822.369E-03
            1744            2094     766.939E-03     822.369E-03
            1729            2094     766.939E-03     822.369E-03
            1729            2095     666.649E-03     722.644E-03
            1745            2095     666.649E-03     722.644E-03
            1730            2095     666.649E-03     722.644E-03
            1746            2095     666.649E-03     722.644E-03
            1731            2096     566.518E-03     623.406E-03
            1747            2096     566.518E-03     623.406E-03
            1746            2096     566.518E-03     623.406E-03
            1730            2096     566.518E-03     623.406E-03
            1731            2097     467.144E-03     524.657E-03
            1732            2097     467.144E-03     524.657E-03
            1748            2097     467.144E-03     524.657E-03
            1747            2097     467.144E-03     524.657E-03
            1733            2098     368.936E-03     426.645E-03
            1748            2098     368.936E-03     426.645E-03
            1749            2098     368.936E-03     426.645E-03
            1732            2098     368.936E-03     426.645E-03
            1734            2099     273.310E-03     330.260E-03
            1750            2099     273.310E-03     330.260E-03
            1749            2099     273.310E-03     330.260E-03
            1733            2099     273.310E-03     330.260E-03
            1750            2100     182.671E-03     232.938E-03
            1751            2100     182.671E-03     232.938E-03
            1735            2100     182.671E-03     232.938E-03
            1734            2100     182.671E-03     232.938E-03
            1751            2101     111.872E-03     123.592E-03
            1752            2101     111.872E-03     123.592E-03
            1735            2101     111.872E-03     123.592E-03
            1736            2101     111.872E-03     123.592E-03
            2369            2543     933.515E-03     994.330E-03
            2370            2543     933.515E-03     994.330E-03
            2386            2543     933.515E-03     994.330E-03
            2385            2543     933.515E-03     994.330E-03
            2387            2544     823.344E-03     891.980E-03
            2370            2544     823.344E-03     891.980E-03
            2386            2544     823.344E-03     891.980E-03
            2371            2544     823.344E-03     891.980E-03
            2371            2545     759.158E-03     828.631E-03
            2372            2545     759.158E-03     828.631E-03
            2388            2545     759.158E-03     828.631E-03
            2387            2545     759.158E-03     828.631E-03
            2372            2546     700.909E-03     769.392E-03
            2389            2546     700.909E-03     769.392E-03
            2373            2546     700.909E-03     769.392E-03
            2388            2546     700.909E-03     769.392E-03
            2389            2547     640.768E-03     708.942E-03
            2374            2547     640.768E-03     708.942E-03
            2373            2547     640.768E-03     708.942E-03
            2390            2547     640.768E-03     708.942E-03
            2375            2548     581.651E-03     649.994E-03
            2391            2548     581.651E-03     649.994E-03
            2374            2548     581.651E-03     649.994E-03
            2390            2548     581.651E-03     649.994E-03
            2392            2549     523.261E-03     590.732E-03
            2391            2549     523.261E-03     590.732E-03
            2375            2549     523.261E-03     590.732E-03
            2376            2549     523.261E-03     590.732E-03
            2376            2550     465.390E-03     532.568E-03
            2377            2550     465.390E-03     532.568E-03
            2392            2550     465.390E-03     532.568E-03
            2393            2550     465.390E-03     532.568E-03
            2378            2551     408.754E-03     474.687E-03
            2393            2551     408.754E-03     474.687E-03
            2394            2551     408.754E-03     474.687E-03
            2377            2551     408.754E-03     474.687E-03
            2378            2552     353.372E-03     418.101E-03
            2394            2552     353.372E-03     418.101E-03
            2395            2552     353.372E-03     418.101E-03
            2379            2552     353.372E-03     418.101E-03
            2396            2553     300.476E-03     362.720E-03
            2379            2553     300.476E-03     362.720E-03
            2380            2553     300.476E-03     362.720E-03
            2395            2553     300.476E-03     362.720E-03
            2380            2554     251.155E-03     309.802E-03
            2381            2554     251.155E-03     309.802E-03
            2396            2554     251.155E-03     309.802E-03
            2397            2554     251.155E-03     309.802E-03
            2398            2555     208.760E-03     260.341E-03
            2397            2555     208.760E-03     260.341E-03
            2382            2555     208.760E-03     260.341E-03
            2381            2555     208.760E-03     260.341E-03
            2383            2556     181.152E-03     220.159E-03
            2398            2556     181.152E-03     220.159E-03
            2399            2556     181.152E-03     220.159E-03
            2382            2556     181.152E-03     220.159E-03
            2399            2557     170.974E-03     183.558E-03
            2400            2557     170.974E-03     183.558E-03
            2383            2557     170.974E-03     183.558E-03
            2384            2557     170.974E-03     183.558E-03
            2385            2558     879.148E-03     834.614E-03
            2402            2558     879.148E-03     834.614E-03
            2401            2558     879.148E-03     834.614E-03
            2386            2558     879.148E-03     834.614E-03
            2403            2559     878.833E-03     843.225E-03
            2402            2559     878.833E-03     843.225E-03
            2386            2559     878.833E-03     843.225E-03
            2387            2559     878.833E-03     843.225E-03
            2388            2560     816.870E-03     781.744E-03
            2387            2560     816.870E-03     781.744E-03
            2403            2560     816.870E-03     781.744E-03
            2404            2560     816.870E-03     781.744E-03
            2388            2561     758.622E-03     722.711E-03
            2404            2561     758.622E-03     722.711E-03
            2389            2561     758.622E-03     722.711E-03
            2405            2561     758.622E-03     722.711E-03
            2406            2562     700.597E-03     665.852E-03
            2405            2562     700.597E-03     665.852E-03
            2389            2562     700.597E-03     665.852E-03
            2390            2562     700.597E-03     665.852E-03
            2390            2563     643.210E-03     608.449E-03
            2407            2563     643.210E-03     608.449E-03
            2406            2563     643.210E-03     608.449E-03
            2391            2563     643.210E-03     608.449E-03
            2408            2564     585.524E-03     551.686E-03
            2391            2564     585.524E-03     551.686E-03
            2407            2564     585.524E-03     551.686E-03
            2392            2564     585.524E-03     551.686E-03
            2408            2565     528.802E-03     495.402E-03
            2409            2565     528.802E-03     495.402E-03
            2392            2565     528.802E-03     495.402E-03
            2393            2565     528.802E-03     495.402E-03
            2410            2566     472.755E-03     440.542E-03
            2409            2566     472.755E-03     440.542E-03
            2393            2566     472.755E-03     440.542E-03
            2394            2566     472.755E-03     440.542E-03
            2411            2567     418.242E-03     387.255E-03
            2410            2567     418.242E-03     387.255E-03
            2395            2567     418.242E-03     387.255E-03
            2394            2567     418.242E-03     387.255E-03
            2411            2568     365.629E-03     336.780E-03
            2412            2568     365.629E-03     336.780E-03
            2396            2568     365.629E-03     336.780E-03
            2395            2568     365.629E-03     336.780E-03
            2413            2569     316.010E-03     290.149E-03
            2396            2569     316.010E-03     290.149E-03
            2412            2569     316.010E-03     290.149E-03
            2397            2569     316.010E-03     290.149E-03
            2413            2570     271.654E-03     249.309E-03
            2414            2570     271.654E-03     249.309E-03
            2397            2570     271.654E-03     249.309E-03
            2398            2570     271.654E-03     249.309E-03
            2415            2571     235.129E-03     220.195E-03
            2414            2571     235.129E-03     220.195E-03
            2399            2571     235.129E-03     220.195E-03
            2398            2571     235.129E-03     220.195E-03
            2415            2572     208.185E-03     203.713E-03
            2416            2572     208.185E-03     203.713E-03
            2399            2572     208.185E-03     203.713E-03
            2400            2572     208.185E-03     203.713E-03
            2402            2573     759.712E-03     775.470E-03
            2417            2573     759.712E-03     775.470E-03
            2418            2573     759.712E-03     775.470E-03
            2401            2573     759.712E-03     775.470E-03
            2418            2574     687.588E-03     678.985E-03
            2403            2574     687.588E-03     678.985E-03
            2402            2574     687.588E-03     678.985E-03
            2419            2574     687.588E-03     678.985E-03
            2403            2575     624.175E-03     610.271E-03
            2420            2575     624.175E-03     610.271E-03
            2404            2575     624.175E-03     610.271E-03
            2419            2575     624.175E-03     610.271E-03
            2421            2576     569.644E-03     556.718E-03
            2405            2576     569.644E-03     556.718E-03
            2404            2576     569.644E-03     556.718E-03
            2420            2576     569.644E-03     556.718E-03
            2421            2577     526.604E-03     513.738E-03
            2406            2577     526.604E-03     513.738E-03
            2422            2577     526.604E-03     513.738E-03
            2405            2577     526.604E-03     513.738E-03
            2406            2578     485.359E-03     472.209E-03
            2423            2578     485.359E-03     472.209E-03
            2422            2578     485.359E-03     472.209E-03
            2407            2578     485.359E-03     472.209E-03
            2407            2579     445.094E-03     432.168E-03
            2408            2579     445.094E-03     432.168E-03
            2424            2579     445.094E-03     432.168E-03
            2423            2579     445.094E-03     432.168E-03
            2408            2580     405.559E-03     392.327E-03
            2424            2580     405.559E-03     392.327E-03
            2409            2580     405.559E-03     392.327E-03
            2425            2580     405.559E-03     392.327E-03
            2409            2581     366.711E-03     353.619E-03
            2426            2581     366.711E-03     353.619E-03
            2410            2581     366.711E-03     353.619E-03
            2425            2581     366.711E-03     353.619E-03
            2427            2582     329.500E-03     316.164E-03
            2426            2582     329.500E-03     316.164E-03
            2411            2582     329.500E-03     316.164E-03
            2410            2582     329.500E-03     316.164E-03
            2411            2583     293.981E-03     280.695E-03
            2412            2583     293.981E-03     280.695E-03
            2428            2583     293.981E-03     280.695E-03
            2427            2583     293.981E-03     280.695E-03
            2412            2584     261.559E-03     248.493E-03
            2428            2584     261.559E-03     248.493E-03
            2413            2584     261.559E-03     248.493E-03
            2429            2584     261.559E-03     248.493E-03
            2430            2585     232.633E-03     220.334E-03
            2429            2585     232.633E-03     220.334E-03
            2414            2585     232.633E-03     220.334E-03
            2413            2585     232.633E-03     220.334E-03
            2415            2586     208.070E-03     200.733E-03
            2414            2586     208.070E-03     200.733E-03
            2431            2586     208.070E-03     200.733E-03
            2430            2586     208.070E-03     200.733E-03
            2416            2587     181.984E-03     186.314E-03
            2415            2587     181.984E-03     186.314E-03
            2431            2587     181.984E-03     186.314E-03
            2432            2587     181.984E-03     186.314E-03
            2433            2588     695.933E-03     741.960E-03
            2434            2588     695.933E-03     741.960E-03
            2418            2588     695.933E-03     741.960E-03
            2417            2588     695.933E-03     741.960E-03
            2418            2589     498.176E-03     552.468E-03
            2434            2589     498.176E-03     552.468E-03
            2419            2589     498.176E-03     552.468E-03
            2435            2589     498.176E-03     552.468E-03
            2435            2590     409.704E-03     463.174E-03
            2420            2590     409.704E-03     463.174E-03
            2419            2590     409.704E-03     463.174E-03
            2436            2590     409.704E-03     463.174E-03
            2421            2591     365.585E-03     417.689E-03
            2436            2591     365.585E-03     417.689E-03
            2420            2591     365.585E-03     417.689E-03
            2437            2591     365.585E-03     417.689E-03
            2438            2592     333.536E-03     384.909E-03
            2437            2592     333.536E-03     384.909E-03
            2421            2592     333.536E-03     384.909E-03
            2422            2592     333.536E-03     384.909E-03
            2438            2593     308.299E-03     358.385E-03
            2422            2593     308.299E-03     358.385E-03
            2423            2593     308.299E-03     358.385E-03
            2439            2593     308.299E-03     358.385E-03
            2423            2594     284.039E-03     332.762E-03
            2424            2594     284.039E-03     332.762E-03
            2440            2594     284.039E-03     332.762E-03
            2439            2594     284.039E-03     332.762E-03
            2424            2595     261.030E-03     308.170E-03
            2425            2595     261.030E-03     308.170E-03
            2441            2595     261.030E-03     308.170E-03
            2440            2595     261.030E-03     308.170E-03
            2426            2596     238.979E-03     283.860E-03
            2425            2596     238.979E-03     283.860E-03
            2441            2596     238.979E-03     283.860E-03
            2442            2596     238.979E-03     283.860E-03
            2427            2597     218.530E-03     260.509E-03
            2426            2597     218.530E-03     260.509E-03
            2442            2597     218.530E-03     260.509E-03
            2443            2597     218.530E-03     260.509E-03
            2428            2598     200.288E-03     238.051E-03
            2444            2598     200.288E-03     238.051E-03
            2443            2598     200.288E-03     238.051E-03
            2427            2598     200.288E-03     238.051E-03
            2428            2599     184.983E-03     216.928E-03
            2444            2599     184.983E-03     216.928E-03
            2429            2599     184.983E-03     216.928E-03
            2445            2599     184.983E-03     216.928E-03
            2430            2600     172.634E-03     197.547E-03
            2445            2600     172.634E-03     197.547E-03
            2429            2600     172.634E-03     197.547E-03
            2446            2600     172.634E-03     197.547E-03
            2430            2601     163.666E-03     182.138E-03
            2446            2601     163.666E-03     182.138E-03
            2447            2601     163.666E-03     182.138E-03
            2431            2601     163.666E-03     182.138E-03
            2432            2602     158.002E-03     168.999E-03
            2448            2602     158.002E-03     168.999E-03
            2447            2602     158.002E-03     168.999E-03
            2431            2602     158.002E-03     168.999E-03
            2449            2603     633.835E-03     637.842E-03
            2433            2603     633.835E-03     637.842E-03
            2450            2603     633.835E-03     637.842E-03
            2434            2603     633.835E-03     637.842E-03
            2451            2604     505.381E-03     529.386E-03
            2450            2604     505.381E-03     529.386E-03
            2435            2604     505.381E-03     529.386E-03
            2434            2604     505.381E-03     529.386E-03
            2451            2605     425.050E-03     459.595E-03
            2436            2605     425.050E-03     459.595E-03
            2452            2605     425.050E-03     459.595E-03
            2435            2605     425.050E-03     459.595E-03
            2436            2606     385.418E-03     421.180E-03
            2437            2606     385.418E-03     421.180E-03
            2453            2606     385.418E-03     421.180E-03
            2452            2606     385.418E-03     421.180E-03
            2438            2607     356.849E-03     390.626E-03
            2454            2607     356.849E-03     390.626E-03
            2437            2607     356.849E-03     390.626E-03
            2453            2607     356.849E-03     390.626E-03
            2454            2608     330.042E-03     362.664E-03
            2438            2608     330.042E-03     362.664E-03
            2439            2608     330.042E-03     362.664E-03
            2455            2608     330.042E-03     362.664E-03
            2455            2609     305.182E-03     336.485E-03
            2456            2609     305.182E-03     336.485E-03
            2439            2609     305.182E-03     336.485E-03
            2440            2609     305.182E-03     336.485E-03
            2440            2610     281.242E-03     311.248E-03
            2441            2610     281.242E-03     311.248E-03
            2456            2610     281.242E-03     311.248E-03
            2457            2610     281.242E-03     311.248E-03
            2458            2611     258.952E-03     287.370E-03
            2441            2611     258.952E-03     287.370E-03
            2442            2611     258.952E-03     287.370E-03
            2457            2611     258.952E-03     287.370E-03
            2458            2612     238.440E-03     264.719E-03
            2442            2612     238.440E-03     264.719E-03
            2459            2612     238.440E-03     264.719E-03
            2443            2612     238.440E-03     264.719E-03
            2459            2613     220.390E-03     243.970E-03
            2460            2613     220.390E-03     243.970E-03
            2443            2613     220.390E-03     243.970E-03
            2444            2613     220.390E-03     243.970E-03
            2460            2614     205.456E-03     224.609E-03
            2445            2614     205.456E-03     224.609E-03
            2461            2614     205.456E-03     224.609E-03
            2444            2614     205.456E-03     224.609E-03
            2446            2615     193.507E-03     207.378E-03
            2461            2615     193.507E-03     207.378E-03
            2462            2615     193.507E-03     207.378E-03
            2445            2615     193.507E-03     207.378E-03
            2446            2616     185.777E-03     191.445E-03
            2462            2616     185.777E-03     191.445E-03
            2447            2616     185.777E-03     191.445E-03
            2463            2616     185.777E-03     191.445E-03
            2464            2617     182.778E-03     171.940E-03
            2447            2617     182.778E-03     171.940E-03
            2448            2617     182.778E-03     171.940E-03
            2463            2617     182.778E-03     171.940E-03
            2450            2618     519.002E-03     532.821E-03
            2465            2618     519.002E-03     532.821E-03
            2466            2618     519.002E-03     532.821E-03
            2449            2618     519.002E-03     532.821E-03
            2467            2619     460.039E-03     474.923E-03
            2466            2619     460.039E-03     474.923E-03
            2450            2619     460.039E-03     474.923E-03
            2451            2619     460.039E-03     474.923E-03
            2467            2620     429.456E-03     448.375E-03
            2451            2620     429.456E-03     448.375E-03
            2452            2620     429.456E-03     448.375E-03
            2468            2620     429.456E-03     448.375E-03
            2469            2621     403.071E-03     421.511E-03
            2452            2621     403.071E-03     421.511E-03
            2468            2621     403.071E-03     421.511E-03
            2453            2621     403.071E-03     421.511E-03
            2470            2622     377.431E-03     394.095E-03
            2453            2622     377.431E-03     394.095E-03
            2469            2622     377.431E-03     394.095E-03
            2454            2622     377.431E-03     394.095E-03
            2454            2623     350.313E-03     365.737E-03
            2455            2623     350.313E-03     365.737E-03
            2471            2623     350.313E-03     365.737E-03
            2470            2623     350.313E-03     365.737E-03
            2471            2624     324.268E-03     338.927E-03
            2472            2624     324.268E-03     338.927E-03
            2455            2624     324.268E-03     338.927E-03
            2456            2624     324.268E-03     338.927E-03
            2456            2625     299.839E-03     313.639E-03
            2457            2625     299.839E-03     313.639E-03
            2473            2625     299.839E-03     313.639E-03
            2472            2625     299.839E-03     313.639E-03
            2458            2626     277.257E-03     290.230E-03
            2457            2626     277.257E-03     290.230E-03
            2474            2626     277.257E-03     290.230E-03
            2473            2626     277.257E-03     290.230E-03
            2459            2627     256.966E-03     268.923E-03
            2475            2627     256.966E-03     268.923E-03
            2458            2627     256.966E-03     268.923E-03
            2474            2627     256.966E-03     268.923E-03
            2460            2628     239.079E-03     249.681E-03
            2459            2628     239.079E-03     249.681E-03
            2475            2628     239.079E-03     249.681E-03
            2476            2628     239.079E-03     249.681E-03
            2460            2629     224.046E-03     233.116E-03
            2476            2629     224.046E-03     233.116E-03
            2477            2629     224.046E-03     233.116E-03
            2461            2629     224.046E-03     233.116E-03
            2462            2630     213.363E-03     217.322E-03
            2478            2630     213.363E-03     217.322E-03
            2461            2630     213.363E-03     217.322E-03
            2477            2630     213.363E-03     217.322E-03
            2478            2631     206.752E-03     199.009E-03
            2462            2631     206.752E-03     199.009E-03
            2479            2631     206.752E-03     199.009E-03
            2463            2631     206.752E-03     199.009E-03
            2480            2632     201.108E-03     181.913E-03
            2464            2632     201.108E-03     181.913E-03
            2463            2632     201.108E-03     181.913E-03
            2479            2632     201.108E-03     181.913E-03
            2481            2633     411.951E-03     413.391E-03
            2465            2633     411.951E-03     413.391E-03
            2466            2633     411.951E-03     413.391E-03
            2482            2633     411.951E-03     413.391E-03
            2467            2634     392.947E-03     405.796E-03
            2482            2634     392.947E-03     405.796E-03
            2466            2634     392.947E-03     405.796E-03
            2483            2634     392.947E-03     405.796E-03
            2483            2635     415.622E-03     421.094E-03
            2484            2635     415.622E-03     421.094E-03
            2468            2635     415.622E-03     421.094E-03
            2467            2635     415.622E-03     421.094E-03
            2468            2636     412.173E-03     411.691E-03
            2469            2636     412.173E-03     411.691E-03
            2485            2636     412.173E-03     411.691E-03
            2484            2636     412.173E-03     411.691E-03
            2485            2637     389.489E-03     388.533E-03
            2470            2637     389.489E-03     388.533E-03
            2486            2637     389.489E-03     388.533E-03
            2469            2637     389.489E-03     388.533E-03
            2487            2638     364.896E-03     363.259E-03
            2471            2638     364.896E-03     363.259E-03
            2486            2638     364.896E-03     363.259E-03
            2470            2638     364.896E-03     363.259E-03
            2471            2639     339.335E-03     337.625E-03
            2472            2639     339.335E-03     337.625E-03
            2488            2639     339.335E-03     337.625E-03
            2487            2639     339.335E-03     337.625E-03
            2489            2640     315.591E-03     313.920E-03
            2473            2640     315.591E-03     313.920E-03
            2472            2640     315.591E-03     313.920E-03
            2488            2640     315.591E-03     313.920E-03
            2473            2641     293.732E-03     292.128E-03
            2489            2641     293.732E-03     292.128E-03
            2490            2641     293.732E-03     292.128E-03
            2474            2641     293.732E-03     292.128E-03
            2474            2642     274.007E-03     272.631E-03
            2475            2642     274.007E-03     272.631E-03
            2491            2642     274.007E-03     272.631E-03
            2490            2642     274.007E-03     272.631E-03
            2475            2643     256.631E-03     255.577E-03
            2491            2643     256.631E-03     255.577E-03
            2492            2643     256.631E-03     255.577E-03
            2476            2643     256.631E-03     255.577E-03
            2492            2644     241.567E-03     241.203E-03
            2493            2644     241.567E-03     241.203E-03
            2477            2644     241.567E-03     241.203E-03
            2476            2644     241.567E-03     241.203E-03
            2478            2645     229.824E-03     228.968E-03
            2494            2645     229.824E-03     228.968E-03
            2493            2645     229.824E-03     228.968E-03
            2477            2645     229.824E-03     228.968E-03
            2479            2646     222.751E-03     214.934E-03
            2494            2646     222.751E-03     214.934E-03
            2495            2646     222.751E-03     214.934E-03
            2478            2646     222.751E-03     214.934E-03
            2495            2647     216.989E-03     198.226E-03
            2496            2647     216.989E-03     198.226E-03
            2480            2647     216.989E-03     198.226E-03
            2479            2647     216.989E-03     198.226E-03
            2481            2648     305.158E-03     301.738E-03
            2482            2648     305.158E-03     301.738E-03
            2497            2648     305.158E-03     301.738E-03
            2498            2648     305.158E-03     301.738E-03
            2482            2649     342.253E-03     334.428E-03
            2499            2649     342.253E-03     334.428E-03
            2483            2649     342.253E-03     334.428E-03
            2498            2649     342.253E-03     334.428E-03
            2500            2650     397.720E-03     380.455E-03
            2483            2650     397.720E-03     380.455E-03
            2499            2650     397.720E-03     380.455E-03
            2484            2650     397.720E-03     380.455E-03
            2484            2651     404.128E-03     384.625E-03
            2500            2651     404.128E-03     384.625E-03
            2485            2651     404.128E-03     384.625E-03
            2501            2651     404.128E-03     384.625E-03
            2485            2652     391.944E-03     372.142E-03
            2502            2652     391.944E-03     372.142E-03
            2501            2652     391.944E-03     372.142E-03
            2486            2652     391.944E-03     372.142E-03
            2487            2653     371.286E-03     352.615E-03
            2503            2653     371.286E-03     352.615E-03
            2502            2653     371.286E-03     352.615E-03
            2486            2653     371.286E-03     352.615E-03
            2487            2654     349.814E-03     332.108E-03
            2488            2654     349.814E-03     332.108E-03
            2504            2654     349.814E-03     332.108E-03
            2503            2654     349.814E-03     332.108E-03
            2504            2655     328.468E-03     311.950E-03
            2505            2655     328.468E-03     311.950E-03
            2489            2655     328.468E-03     311.950E-03
            2488            2655     328.468E-03     311.950E-03
            2489            2656     308.572E-03     293.337E-03
            2505            2656     308.572E-03     293.337E-03
            2506            2656     308.572E-03     293.337E-03
            2490            2656     308.572E-03     293.337E-03
            2490            2657     290.189E-03     276.439E-03
            2506            2657     290.189E-03     276.439E-03
            2491            2657     290.189E-03     276.439E-03
            2507            2657     290.189E-03     276.439E-03
            2491            2658     273.539E-03     261.868E-03
            2508            2658     273.539E-03     261.868E-03
            2492            2658     273.539E-03     261.868E-03
            2507            2658     273.539E-03     261.868E-03
            2508            2659     258.878E-03     249.451E-03
            2492            2659     258.878E-03     249.451E-03
            2493            2659     258.878E-03     249.451E-03
            2509            2659     258.878E-03     249.451E-03
            2494            2660     245.058E-03     240.849E-03
            2510            2660     245.058E-03     240.849E-03
            2509            2660     245.058E-03     240.849E-03
            2493            2660     245.058E-03     240.849E-03
            2494            2661     233.860E-03     236.114E-03
            2495            2661     233.860E-03     236.114E-03
            2511            2661     233.860E-03     236.114E-03
            2510            2661     233.860E-03     236.114E-03
            2496            2662     230.043E-03     225.070E-03
            2511            2662     230.043E-03     225.070E-03
            2495            2662     230.043E-03     225.070E-03
            2512            2662     230.043E-03     225.070E-03
            2513            2663     231.423E-03     222.507E-03
            2514            2663     231.423E-03     222.507E-03
            2497            2663     231.423E-03     222.507E-03
            2498            2663     231.423E-03     222.507E-03
            2498            2664     307.560E-03     261.771E-03
            2515            2664     307.560E-03     261.771E-03
            2499            2664     307.560E-03     261.771E-03
            2514            2664     307.560E-03     261.771E-03
            2499            2665     367.466E-03     322.512E-03
            2515            2665     367.466E-03     322.512E-03
            2500            2665     367.466E-03     322.512E-03
            2516            2665     367.466E-03     322.512E-03
            2501            2666     384.764E-03     343.941E-03
            2500            2666     384.764E-03     343.941E-03
            2516            2666     384.764E-03     343.941E-03
            2517            2666     384.764E-03     343.941E-03
            2502            2667     383.662E-03     345.786E-03
            2501            2667     383.662E-03     345.786E-03
            2517            2667     383.662E-03     345.786E-03
            2518            2667     383.662E-03     345.786E-03
            2519            2668     372.524E-03     337.079E-03
            2518            2668     372.524E-03     337.079E-03
            2502            2668     372.524E-03     337.079E-03
            2503            2668     372.524E-03     337.079E-03
            2520            2669     356.979E-03     324.231E-03
            2503            2669     356.979E-03     324.231E-03
            2504            2669     356.979E-03     324.231E-03
            2519            2669     356.979E-03     324.231E-03
            2504            2670     340.104E-03     309.698E-03
            2505            2670     340.104E-03     309.698E-03
            2520            2670     340.104E-03     309.698E-03
            2521            2670     340.104E-03     309.698E-03
            2522            2671     322.880E-03     295.202E-03
            2506            2671     322.880E-03     295.202E-03
            2505            2671     322.880E-03     295.202E-03
            2521            2671     322.880E-03     295.202E-03
            2507            2672     306.378E-03     281.597E-03
            2522            2672     306.378E-03     281.597E-03
            2523            2672     306.378E-03     281.597E-03
            2506            2672     306.378E-03     281.597E-03
            2508            2673     290.728E-03     269.318E-03
            2524            2673     290.728E-03     269.318E-03
            2507            2673     290.728E-03     269.318E-03
            2523            2673     290.728E-03     269.318E-03
            2525            2674     276.402E-03     259.194E-03
            2524            2674     276.402E-03     259.194E-03
            2508            2674     276.402E-03     259.194E-03
            2509            2674     276.402E-03     259.194E-03
            2510            2675     262.808E-03     251.528E-03
            2525            2675     262.808E-03     251.528E-03
            2509            2675     262.808E-03     251.528E-03
            2526            2675     262.808E-03     251.528E-03
            2511            2676     248.808E-03     249.804E-03
            2526            2676     248.808E-03     249.804E-03
            2510            2676     248.808E-03     249.804E-03
            2527            2676     248.808E-03     249.804E-03
            2512            2677     235.123E-03     253.544E-03
            2527            2677     235.123E-03     253.544E-03
            2528            2677     235.123E-03     253.544E-03
            2511            2677     235.123E-03     253.544E-03
            2513            2678     124.601E-03     118.938E-03
            2530            2678     124.601E-03     118.938E-03
            2529            2678     124.601E-03     118.938E-03
            2514            2678     124.601E-03     118.938E-03
            2515            2679     165.568E-03     131.513E-03
            2530            2679     165.568E-03     131.513E-03
            2514            2679     165.568E-03     131.513E-03
            2531            2679     165.568E-03     131.513E-03
            2532            2680     190.661E-03     162.122E-03
            2515            2680     190.661E-03     162.122E-03
            2516            2680     190.661E-03     162.122E-03
            2531            2680     190.661E-03     162.122E-03
            2533            2681     203.018E-03     177.668E-03
            2516            2681     203.018E-03     177.668E-03
            2532            2681     203.018E-03     177.668E-03
            2517            2681     203.018E-03     177.668E-03
            2518            2682     203.621E-03     180.782E-03
            2533            2682     203.621E-03     180.782E-03
            2517            2682     203.621E-03     180.782E-03
            2534            2682     203.621E-03     180.782E-03
            2518            2683     199.809E-03     178.719E-03
            2535            2683     199.809E-03     178.719E-03
            2534            2683     199.809E-03     178.719E-03
            2519            2683     199.809E-03     178.719E-03
            2535            2684     192.507E-03     173.080E-03
            2520            2684     192.507E-03     173.080E-03
            2519            2684     192.507E-03     173.080E-03
            2536            2684     192.507E-03     173.080E-03
            2520            2685     183.988E-03     166.118E-03
            2521            2685     183.988E-03     166.118E-03
            2537            2685     183.988E-03     166.118E-03
            2536            2685     183.988E-03     166.118E-03
            2538            2686     174.874E-03     158.767E-03
            2522            2686     174.874E-03     158.767E-03
            2537            2686     174.874E-03     158.767E-03
            2521            2686     174.874E-03     158.767E-03
            2539            2687     165.812E-03     151.512E-03
            2522            2687     165.812E-03     151.512E-03
            2538            2687     165.812E-03     151.512E-03
            2523            2687     165.812E-03     151.512E-03
            2540            2688     156.990E-03     144.761E-03
            2539            2688     156.990E-03     144.761E-03
            2524            2688     156.990E-03     144.761E-03
            2523            2688     156.990E-03     144.761E-03
            2524            2689     148.760E-03     139.083E-03
            2541            2689     148.760E-03     139.083E-03
            2525            2689     148.760E-03     139.083E-03
            2540            2689     148.760E-03     139.083E-03
            2541            2690     140.898E-03     133.909E-03
            2542            2690     140.898E-03     133.909E-03
            2526            2690     140.898E-03     133.909E-03
            2525            2690     140.898E-03     133.909E-03
            2527            2691     133.491E-03     131.770E-03
            2526            2691     133.491E-03     131.770E-03
            2542            2691     133.491E-03     131.770E-03
            2543            2691     133.491E-03     131.770E-03
            2544            2692     121.495E-03     134.178E-03
            2527            2692     121.495E-03     134.178E-03
            2528            2692     121.495E-03     134.178E-03
            2543            2692     121.495E-03     134.178E-03
            2658            2768         1.41618         1.44602
            2641            2768         1.41618         1.44602
            2657            2768         1.41618         1.44602
            2642            2768         1.41618         1.44602
            2642            2769         1.33033         1.35586
            2643            2769         1.33033         1.35586
            2659            2769         1.33033         1.35586
            2658            2769         1.33033         1.35586
            2659            2770         1.23318         1.25867
            2644            2770         1.23318         1.25867
            2660            2770         1.23318         1.25867
            2643            2770         1.23318         1.25867
            2661            2771         1.13671         1.16477
            2660            2771         1.13671         1.16477
            2645            2771         1.13671         1.16477
            2644            2771         1.13671         1.16477
            2646            2772         1.04221         1.06754
            2661            2772         1.04221         1.06754
            2662            2772         1.04221         1.06754
            2645            2772         1.04221         1.06754
            2646            2773     945.603E-03     973.304E-03
            2662            2773     945.603E-03     973.304E-03
            2663            2773     945.603E-03     973.304E-03
            2647            2773     945.603E-03     973.304E-03
            2664            2774     851.328E-03     877.454E-03
            2648            2774     851.328E-03     877.454E-03
            2647            2774     851.328E-03     877.454E-03
            2663            2774     851.328E-03     877.454E-03
            2665            2775     756.238E-03     783.517E-03
            2648            2775     756.238E-03     783.517E-03
            2664            2775     756.238E-03     783.517E-03
            2649            2775     756.238E-03     783.517E-03
            2649            2776     662.678E-03     689.476E-03
            2665            2776     662.678E-03     689.476E-03
            2650            2776     662.678E-03     689.476E-03
            2666            2776     662.678E-03     689.476E-03
            2667            2777     569.726E-03     596.997E-03
            2650            2777     569.726E-03     596.997E-03
            2666            2777     569.726E-03     596.997E-03
            2651            2777     569.726E-03     596.997E-03
            2668            2778     478.655E-03     506.024E-03
            2667            2778     478.655E-03     506.024E-03
            2652            2778     478.655E-03     506.024E-03
            2651            2778     478.655E-03     506.024E-03
            2653            2779     390.500E-03     418.097E-03
            2669            2779     390.500E-03     418.097E-03
            2652            2779     390.500E-03     418.097E-03
            2668            2779     390.500E-03     418.097E-03
            2670            2780     308.239E-03     335.336E-03
            2653            2780     308.239E-03     335.336E-03
            2654            2780     308.239E-03     335.336E-03
            2669            2780     308.239E-03     335.336E-03
            2654            2781     240.020E-03     263.928E-03
            2671            2781     240.020E-03     263.928E-03
            2670            2781     240.020E-03     263.928E-03
            2655            2781     240.020E-03     263.928E-03
            2672            2782     198.190E-03     208.112E-03
            2671            2782     198.190E-03     208.112E-03
            2656            2782     198.190E-03     208.112E-03
            2655            2782     198.190E-03     208.112E-03
            2658            2783         1.33646         1.35514
            2657            2783         1.33646         1.35514
            2674            2783         1.33646         1.35514
            2673            2783         1.33646         1.35514
            2659            2784         1.23562         1.24396
            2674            2784         1.23562         1.24396
            2675            2784         1.23562         1.24396
            2658            2784         1.23562         1.24396
            2675            2785         1.14155         1.15028
            2676            2785         1.14155         1.15028
            2659            2785         1.14155         1.15028
            2660            2785         1.14155         1.15028
            2677            2786         1.05560         1.06682
            2676            2786         1.05560         1.06682
            2661            2786         1.05560         1.06682
            2660            2786         1.05560         1.06682
            2661            2787     968.459E-03     978.092E-03
            2662            2787     968.459E-03     978.092E-03
            2678            2787     968.459E-03     978.092E-03
            2677            2787     968.459E-03     978.092E-03
            2678            2788     879.794E-03     891.227E-03
            2663            2788     879.794E-03     891.227E-03
            2662            2788     879.794E-03     891.227E-03
            2679            2788     879.794E-03     891.227E-03
            2663            2789     792.994E-03     803.262E-03
            2680            2789     792.994E-03     803.262E-03
            2679            2789     792.994E-03     803.262E-03
            2664            2789     792.994E-03     803.262E-03
            2664            2790     705.470E-03     716.874E-03
            2665            2790     705.470E-03     716.874E-03
            2681            2790     705.470E-03     716.874E-03
            2680            2790     705.470E-03     716.874E-03
            2681            2791     619.415E-03     630.440E-03
            2666            2791     619.415E-03     630.440E-03
            2682            2791     619.415E-03     630.440E-03
            2665            2791     619.415E-03     630.440E-03
            2682            2792     533.876E-03     545.587E-03
            2666            2792     533.876E-03     545.587E-03
            2667            2792     533.876E-03     545.587E-03
            2683            2792     533.876E-03     545.587E-03
            2667            2793     450.256E-03     462.091E-03
            2684            2793     450.256E-03     462.091E-03
            2668            2793     450.256E-03     462.091E-03
            2683            2793     450.256E-03     462.091E-03
            2685            2794     369.240E-03     381.848E-03
            2669            2794     369.240E-03     381.848E-03
            2668            2794     369.240E-03     381.848E-03
            2684            2794     369.240E-03     381.848E-03
            2670            2795     293.379E-03     307.344E-03
            2686            2795     293.379E-03     307.344E-03
            2685            2795     293.379E-03     307.344E-03
            2669            2795     293.379E-03     307.344E-03
            2686            2796     231.294E-03     242.943E-03
            2671            2796     231.294E-03     242.943E-03
            2670            2796     231.294E-03     242.943E-03
            2687            2796     231.294E-03     242.943E-03
            2688            2797     183.577E-03     181.556E-03
            2672            2797     183.577E-03     181.556E-03
            2687            2797     183.577E-03     181.556E-03
            2671            2797     183.577E-03     181.556E-03
            2674            2798         1.24361         1.30425
            2690            2798         1.24361         1.30425
            2673            2798         1.24361         1.30425
            2689            2798         1.24361         1.30425
            2674            2799         1.10559         1.17552
            2691            2799         1.10559         1.17552
            2675            2799         1.10559         1.17552
            2690            2799         1.10559         1.17552
            2676            2800         1.01721         1.08811
            2675            2800         1.01721         1.08811
            2692            2800         1.01721         1.08811
            2691            2800         1.01721         1.08811
            2693            2801     937.928E-03         1.00798
            2676            2801     937.928E-03         1.00798
            2692            2801     937.928E-03         1.00798
            2677            2801     937.928E-03         1.00798
            2677            2802     856.702E-03     926.424E-03
            2694            2802     856.702E-03     926.424E-03
            2678            2802     856.702E-03     926.424E-03
            2693            2802     856.702E-03     926.424E-03
            2694            2803     776.187E-03     846.341E-03
            2679            2803     776.187E-03     846.341E-03
            2678            2803     776.187E-03     846.341E-03
            2695            2803     776.187E-03     846.341E-03
            2695            2804     696.306E-03     765.850E-03
            2696            2804     696.306E-03     765.850E-03
            2679            2804     696.306E-03     765.850E-03
            2680            2804     696.306E-03     765.850E-03
            2696            2805     616.740E-03     686.343E-03
            2681            2805     616.740E-03     686.343E-03
            2697            2805     616.740E-03     686.343E-03
            2680            2805     616.740E-03     686.343E-03
            2681            2806     538.182E-03     607.013E-03
            2697            2806     538.182E-03     607.013E-03
            2682            2806     538.182E-03     607.013E-03
            2698            2806     538.182E-03     607.013E-03
            2682            2807     460.505E-03     528.804E-03
            2699            2807     460.505E-03     528.804E-03
            2698            2807     460.505E-03     528.804E-03
            2683            2807     460.505E-03     528.804E-03
            2683            2808     384.780E-03     451.650E-03
            2700            2808     384.780E-03     451.650E-03
            2684            2808     384.780E-03     451.650E-03
            2699            2808     384.780E-03     451.650E-03
            2685            2809     311.977E-03     376.772E-03
            2684            2809     311.977E-03     376.772E-03
            2701            2809     311.977E-03     376.772E-03
            2700            2809     311.977E-03     376.772E-03
            2686            2810     245.917E-03     305.572E-03
            2702            2810     245.917E-03     305.572E-03
            2685            2810     245.917E-03     305.572E-03
            2701            2810     245.917E-03     305.572E-03
            2703            2811     196.403E-03     244.066E-03
            2702            2811     196.403E-03     244.066E-03
            2686            2811     196.403E-03     244.066E-03
            2687            2811     196.403E-03     244.066E-03
            2704            2812     172.077E-03     188.228E-03
            2687            2812     172.077E-03     188.228E-03
            2688            2812     172.077E-03     188.228E-03
            2703            2812     172.077E-03     188.228E-03
            2705            2813         1.17115         1.13575
            2689            2813         1.17115         1.13575
            2690            2813         1.17115         1.13575
            2706            2813         1.17115         1.13575
            2690            2814         1.14976         1.12438
            2706            2814         1.14976         1.12438
            2691            2814         1.14976         1.12438
            2707            2814         1.14976         1.12438
            2691            2815         1.07053         1.04543
            2707            2815         1.07053         1.04543
            2708            2815         1.07053         1.04543
            2692            2815         1.07053         1.04543
            2708            2816     991.963E-03     965.868E-03
            2692            2816     991.963E-03     965.868E-03
            2693            2816     991.963E-03     965.868E-03
            2709            2816     991.963E-03     965.868E-03
            2710            2817     913.121E-03     887.897E-03
            2709            2817     913.121E-03     887.897E-03
            2693            2817     913.121E-03     887.897E-03
            2694            2817     913.121E-03     887.897E-03
            2695            2818     835.136E-03     809.727E-03
            2710            2818     835.136E-03     809.727E-03
            2694            2818     835.136E-03     809.727E-03
            2711            2818     835.136E-03     809.727E-03
            2711            2819     756.692E-03     731.970E-03
            2712            2819     756.692E-03     731.970E-03
            2696            2819     756.692E-03     731.970E-03
            2695            2819     756.692E-03     731.970E-03
            2696            2820     679.103E-03     654.477E-03
            2712            2820     679.103E-03     654.477E-03
            2713            2820     679.103E-03     654.477E-03
            2697            2820     679.103E-03     654.477E-03
            2697            2821     602.087E-03     578.232E-03
            2713            2821     602.087E-03     578.232E-03
            2698            2821     602.087E-03     578.232E-03
            2714            2821     602.087E-03     578.232E-03
            2698            2822     526.571E-03     503.380E-03
            2699            2822     526.571E-03     503.380E-03
            2715            2822     526.571E-03     503.380E-03
            2714            2822     526.571E-03     503.380E-03
            2715            2823     452.976E-03     431.196E-03
            2699            2823     452.976E-03     431.196E-03
            2700            2823     452.976E-03     431.196E-03
            2716            2823     452.976E-03     431.196E-03
            2700            2824     382.707E-03     362.721E-03
            2716            2824     382.707E-03     362.721E-03
            2717            2824     382.707E-03     362.721E-03
            2701            2824     382.707E-03     362.721E-03
            2717            2825     318.656E-03     300.645E-03
            2701            2825     318.656E-03     300.645E-03
            2702            2825     318.656E-03     300.645E-03
            2718            2825     318.656E-03     300.645E-03
            2718            2826     264.048E-03     252.276E-03
            2702            2826     264.048E-03     252.276E-03
            2719            2826     264.048E-03     252.276E-03
            2703            2826     264.048E-03     252.276E-03
            2720            2827     223.752E-03     222.746E-03
            2704            2827     223.752E-03     222.746E-03
            2703            2827     223.752E-03     222.746E-03
            2719            2827     223.752E-03     222.746E-03
            2916            2952     280.423E-06     301.297E-06
            2931            2952     280.423E-06     301.297E-06
            2932            2952     280.423E-06     301.297E-06
            2915            2952     280.423E-06     301.297E-06
            2917            2953     212.671E-06     237.260E-06
            2932            2953     212.671E-06     237.260E-06
            2933            2953     212.671E-06     237.260E-06
            2916            2953     212.671E-06     237.260E-06
            2918            2954     189.810E-06     214.300E-06
            2934            2954     189.810E-06     214.300E-06
            2933            2954     189.810E-06     214.300E-06
            2917            2954     189.810E-06     214.300E-06
            2919            2955     182.990E-06     206.636E-06
            2918            2955     182.990E-06     206.636E-06
            2934            2955     182.990E-06     206.636E-06
            2935            2955     182.990E-06     206.636E-06
            2936            2956     177.282E-06     199.929E-06
            2919            2956     177.282E-06     199.929E-06
            2920            2956     177.282E-06     199.929E-06
            2935            2956     177.282E-06     199.929E-06
            2920            2957     171.804E-06     193.846E-06
            2921            2957     171.804E-06     193.846E-06
            2937            2957     171.804E-06     193.846E-06
            2936            2957     171.804E-06     193.846E-06
            2937            2958     166.177E-06     187.508E-06
            2921            2958     166.177E-06     187.508E-06
            2922            2958     166.177E-06     187.508E-06
            2938            2958     166.177E-06     187.508E-06
            2938            2959     161.104E-06     181.516E-06
            2922            2959     161.104E-06     181.516E-06
            2923            2959     161.104E-06     181.516E-06
            2939            2959     161.104E-06     181.516E-06
            2924            2960     156.525E-06     175.789E-06
            2923            2960     156.525E-06     175.789E-06
            2939            2960     156.525E-06     175.789E-06
            2940            2960     156.525E-06     175.789E-06
            2925            2961     152.875E-06     170.529E-06
            2924            2961     152.875E-06     170.529E-06
            2940            2961     152.875E-06     170.529E-06
            2941            2961     152.875E-06     170.529E-06
            2941            2962     149.963E-06     165.800E-06
            2926            2962     149.963E-06     165.800E-06
            2942            2962     149.963E-06     165.800E-06
            2925            2962     149.963E-06     165.800E-06
            2926            2963     148.150E-06     161.453E-06
            2927            2963     148.150E-06     161.453E-06
            2942            2963     148.150E-06     161.453E-06
            2943            2963     148.150E-06     161.453E-06
            2927            2964     146.848E-06     157.333E-06
            2943            2964     146.848E-06     157.333E-06
            2928            2964     146.848E-06     157.333E-06
            2944            2964     146.848E-06     157.333E-06
            2944            2965     144.772E-06     156.160E-06
            2929            2965     144.772E-06     156.160E-06
            2945            2965     144.772E-06     156.160E-06
            2928            2965     144.772E-06     156.160E-06
            2945            2966     144.222E-06     155.929E-06
            2929            2966     144.222E-06     155.929E-06
            2946            2966     144.222E-06     155.929E-06
            2930            2966     144.222E-06     155.929E-06
            2932            2967     235.075E-06     239.089E-06
            2948            2967     235.075E-06     239.089E-06
            2931            2967     235.075E-06     239.089E-06
            2947            2967     235.075E-06     239.089E-06
            2949            2968     213.201E-06     225.068E-06
            2948            2968     213.201E-06     225.068E-06
            2932            2968     213.201E-06     225.068E-06
            2933            2968     213.201E-06     225.068E-06
            2933            2969     201.605E-06     216.703E-06
            2949            2969     201.605E-06     216.703E-06
            2950            2969     201.605E-06     216.703E-06
            2934            2969     201.605E-06     216.703E-06
            2935            2970     195.841E-06     210.514E-06
            2934            2970     195.841E-06     210.514E-06
            2950            2970     195.841E-06     210.514E-06
            2951            2970     195.841E-06     210.514E-06
            2935            2971     189.112E-06     202.717E-06
            2951            2971     189.112E-06     202.717E-06
            2936            2971     189.112E-06     202.717E-06
            2952            2971     189.112E-06     202.717E-06
            2936            2972     181.555E-06     195.153E-06
            2953            2972     181.555E-06     195.153E-06
            2937            2972     181.555E-06     195.153E-06
            2952            2972     181.555E-06     195.153E-06
            2937            2973     175.244E-06     188.270E-06
            2953            2973     175.244E-06     188.270E-06
            2954            2973     175.244E-06     188.270E-06
            2938            2973     175.244E-06     188.270E-06
            2938            2974     169.437E-06     182.067E-06
            2954            2974     169.437E-06     182.067E-06
            2939            2974     169.437E-06     182.067E-06
            2955            2974     169.437E-06     182.067E-06
            2939            2975     164.659E-06     176.654E-06
            2940            2975     164.659E-06     176.654E-06
            2956            2975     164.659E-06     176.654E-06
            2955            2975     164.659E-06     176.654E-06
            2941            2976     160.672E-06     171.802E-06
            2956            2976     160.672E-06     171.802E-06
            2957            2976     160.672E-06     171.802E-06
            2940            2976     160.672E-06     171.802E-06
            2942            2977     157.452E-06     167.777E-06
            2941            2977     157.452E-06     167.777E-06
            2958            2977     157.452E-06     167.777E-06
            2957            2977     157.452E-06     167.777E-06
            2942            2978     155.269E-06     164.282E-06
            2959            2978     155.269E-06     164.282E-06
            2943            2978     155.269E-06     164.282E-06
            2958            2978     155.269E-06     164.282E-06
            2959            2979     154.149E-06     161.366E-06
            2943            2979     154.149E-06     161.366E-06
            2960            2979     154.149E-06     161.366E-06
            2944            2979     154.149E-06     161.366E-06
            2961            2980     154.745E-06     158.027E-06
            2945            2980     154.745E-06     158.027E-06
            2960            2980     154.745E-06     158.027E-06
            2944            2980     154.745E-06     158.027E-06
            2961            2981     160.133E-06     152.069E-06
            2945            2981     160.133E-06     152.069E-06
            2962            2981     160.133E-06     152.069E-06
            2946            2981     160.133E-06     152.069E-06
            2948            2982     167.589E-06     174.439E-06
            2963            2982     167.589E-06     174.439E-06
            2947            2982     167.589E-06     174.439E-06
            2964            2982     167.589E-06     174.439E-06
            2949            2983     187.361E-06     197.818E-06
            2964            2983     187.361E-06     197.818E-06
            2965            2983     187.361E-06     197.818E-06
            2948            2983     187.361E-06     197.818E-06
            2949            2984     207.126E-06     213.238E-06
            2965            2984     207.126E-06     213.238E-06
            2966            2984     207.126E-06     213.238E-06
            2950            2984     207.126E-06     213.238E-06
            2951            2985     205.318E-06     209.528E-06
            2966            2985     205.318E-06     209.528E-06
            2967            2985     205.318E-06     209.528E-06
            2950            2985     205.318E-06     209.528E-06
            2967            2986     197.773E-06     202.505E-06
            2968            2986     197.773E-06     202.505E-06
            2951            2986     197.773E-06     202.505E-06
            2952            2986     197.773E-06     202.505E-06
            2953            2987     190.460E-06     194.715E-06
            2969            2987     190.460E-06     194.715E-06
            2968            2987     190.460E-06     194.715E-06
            2952            2987     190.460E-06     194.715E-06
            2969            2988     183.449E-06     187.921E-06
            2970            2988     183.449E-06     187.921E-06
            2953            2988     183.449E-06     187.921E-06
            2954            2988     183.449E-06     187.921E-06
            2954            2989     177.805E-06     182.147E-06
            2970            2989     177.805E-06     182.147E-06
            2955            2989     177.805E-06     182.147E-06
            2971            2989     177.805E-06     182.147E-06
            2955            2990     172.939E-06     177.196E-06
            2956            2990     172.939E-06     177.196E-06
            2972            2990     172.939E-06     177.196E-06
            2971            2990     172.939E-06     177.196E-06
            2972            2991     168.850E-06     173.183E-06
            2973            2991     168.850E-06     173.183E-06
            2956            2991     168.850E-06     173.183E-06
            2957            2991     168.850E-06     173.183E-06
            2974            2992     165.610E-06     169.709E-06
            2957            2992     165.610E-06     169.709E-06
            2958            2992     165.610E-06     169.709E-06
            2973            2992     165.610E-06     169.709E-06
            2974            2993     162.804E-06     167.304E-06
            2958            2993     162.804E-06     167.304E-06
            2975            2993     162.804E-06     167.304E-06
            2959            2993     162.804E-06     167.304E-06
            2959            2994     161.548E-06     165.673E-06
            2976            2994     161.548E-06     165.673E-06
            2960            2994     161.548E-06     165.673E-06
            2975            2994     161.548E-06     165.673E-06
            2960            2995     165.238E-06     160.188E-06
            2976            2995     165.238E-06     160.188E-06
            2977            2995     165.238E-06     160.188E-06
            2961            2995     165.238E-06     160.188E-06
            2977            2996     169.107E-06     151.604E-06
            2961            2996     169.107E-06     151.604E-06
            2962            2996     169.107E-06     151.604E-06
            2978            2996     169.107E-06     151.604E-06
            2980            2997     113.563E-06     114.121E-06
            2964            2997     113.563E-06     114.121E-06
            2979            2997     113.563E-06     114.121E-06
            2963            2997     113.563E-06     114.121E-06
            2981            2998     166.935E-06     167.823E-06
            2980            2998     166.935E-06     167.823E-06
            2964            2998     166.935E-06     167.823E-06
            2965            2998     166.935E-06     167.823E-06
            2981            2999     201.703E-06     196.261E-06
            2966            2999     201.703E-06     196.261E-06
            2965            2999     201.703E-06     196.261E-06
            2982            2999     201.703E-06     196.261E-06
            2967            3000     206.126E-06     200.093E-06
            2982            3000     206.126E-06     200.093E-06
            2983            3000     206.126E-06     200.093E-06
            2966            3000     206.126E-06     200.093E-06
            2983            3001     202.238E-06     196.465E-06
            2984            3001     202.238E-06     196.465E-06
            2967            3001     202.238E-06     196.465E-06
            2968            3001     202.238E-06     196.465E-06
            2969            3002     196.467E-06     191.239E-06
            2968            3002     196.467E-06     191.239E-06
            2984            3002     196.467E-06     191.239E-06
            2985            3002     196.467E-06     191.239E-06
            2985            3003     190.938E-06     186.120E-06
            2969            3003     190.938E-06     186.120E-06
            2986            3003     190.938E-06     186.120E-06
            2970            3003     190.938E-06     186.120E-06
            2970            3004     185.912E-06     181.595E-06
            2987            3004     185.912E-06     181.595E-06
            2986            3004     185.912E-06     181.595E-06
            2971            3004     185.912E-06     181.595E-06
            2987            3005     181.504E-06     177.805E-06
            2971            3005     181.504E-06     177.805E-06
            2972            3005     181.504E-06     177.805E-06
            2988            3005     181.504E-06     177.805E-06
            2988            3006     177.652E-06     174.522E-06
            2973            3006     177.652E-06     174.522E-06
            2972            3006     177.652E-06     174.522E-06
            2989            3006     177.652E-06     174.522E-06
            2990            3007     174.199E-06     172.050E-06
            2989            3007     174.199E-06     172.050E-06
            2974            3007     174.199E-06     172.050E-06
            2973            3007     174.199E-06     172.050E-06
            2974            3008     171.403E-06     170.118E-06
            2990            3008     171.403E-06     170.118E-06
            2975            3008     171.403E-06     170.118E-06
            2991            3008     171.403E-06     170.118E-06
            2976            3009     169.030E-06     169.044E-06
            2992            3009     169.030E-06     169.044E-06
            2975            3009     169.030E-06     169.044E-06
            2991            3009     169.030E-06     169.044E-06
            2976            3010     167.775E-06     168.909E-06
            2993            3010     167.775E-06     168.909E-06
            2992            3010     167.775E-06     168.909E-06
            2977            3010     167.775E-06     168.909E-06
            2993            3011     172.218E-06     165.277E-06
            2977            3011     172.218E-06     165.277E-06
            2994            3011     172.218E-06     165.277E-06
            2978            3011     172.218E-06     165.277E-06
            2980            3012     87.9607E-06     94.1629E-06
            2995            3012     87.9607E-06     94.1629E-06
            2979            3012     87.9607E-06     94.1629E-06
            2996            3012     87.9607E-06     94.1629E-06
            2997            3013     154.161E-06     134.267E-06
            2996            3013     154.161E-06     134.267E-06
            2980            3013     154.161E-06     134.267E-06
            2981            3013     154.161E-06     134.267E-06
            2982            3014     186.810E-06     168.364E-06
            2981            3014     186.810E-06     168.364E-06
            2998            3014     186.810E-06     168.364E-06
            2997            3014     186.810E-06     168.364E-06
            2983            3015     199.895E-06     182.870E-06
            2982            3015     199.895E-06     182.870E-06
            2998            3015     199.895E-06     182.870E-06
            2999            3015     199.895E-06     182.870E-06
            2984            3016     202.831E-06     186.367E-06
            2983            3016     202.831E-06     186.367E-06
            3000            3016     202.831E-06     186.367E-06
            2999            3016     202.831E-06     186.367E-06
            2985            3017     201.045E-06     185.877E-06
            2984            3017     201.045E-06     185.877E-06
            3000            3017     201.045E-06     185.877E-06
            3001            3017     201.045E-06     185.877E-06
            3002            3018     197.997E-06     183.661E-06
            3001            3018     197.997E-06     183.661E-06
            2985            3018     197.997E-06     183.661E-06
            2986            3018     197.997E-06     183.661E-06
            2986            3019     194.294E-06     181.119E-06
            2987            3019     194.294E-06     181.119E-06
            3003            3019     194.294E-06     181.119E-06
            3002            3019     194.294E-06     181.119E-06
            3004            3020     190.575E-06     178.616E-06
            2987            3020     190.575E-06     178.616E-06
            3003            3020     190.575E-06     178.616E-06
            2988            3020     190.575E-06     178.616E-06
            3004            3021     187.019E-06     176.382E-06
            2988            3021     187.019E-06     176.382E-06
            2989            3021     187.019E-06     176.382E-06
            3005            3021     187.019E-06     176.382E-06
            2990            3022     183.582E-06     174.641E-06
            3006            3022     183.582E-06     174.641E-06
            2989            3022     183.582E-06     174.641E-06
            3005            3022     183.582E-06     174.641E-06
            2991            3023     180.581E-06     173.287E-06
            2990            3023     180.581E-06     173.287E-06
            3006            3023     180.581E-06     173.287E-06
            3007            3023     180.581E-06     173.287E-06
            2992            3024     177.257E-06     172.538E-06
            2991            3024     177.257E-06     172.538E-06
            3007            3024     177.257E-06     172.538E-06
            3008            3024     177.257E-06     172.538E-06
            3009            3025     172.485E-06     175.259E-06
            3008            3025     172.485E-06     175.259E-06
            2993            3025     172.485E-06     175.259E-06
            2992            3025     172.485E-06     175.259E-06
            3010            3026     168.557E-06     180.470E-06
            2994            3026     168.557E-06     180.470E-06
            2993            3026     168.557E-06     180.470E-06
            3009            3026     168.557E-06     180.470E-06


  Minimum                            44.7854E-06     76.6045E-06
      At Element                            2995            2995
            Node                             596             596

  Maximum                                1.62422         1.69091
      At Element                            1737            2641
            Node                             389              20

           Total                     1.54030E+03     1.58854E+03


********************************************************************************
Field Output Report, written Thu Feb 22 16:00:45 2018

Source 1
---------

   ODB: C:/Users/JMJFVA~1/AppData/Local/Temp/CRJ700n.odb
   Step: Jam2
   Frame: Increment      1: Step Time =    1.000

Loc 1 : Element nodal  values at shell < ALUMINIUM > < 5 section points > from source 1 : SNEG, (fraction = -1.0) ( Average criteria = 75%, Not averaged across region boundaries )
Loc 2 : Element nodal  values at shell < ALUMINIUM > < 5 section points > from source 1 : SPOS, (fraction = 1.0) ( Average criteria = 75%, Not averaged across region boundaries )

Output sorted by column "Node Label".

Field Output reported at element nodes for region: CRJ700-1.Region_1
   Computation algorithm: EXTRAPOLATE_COMPUTE_AVERAGE
   Averaged at nodes
   Averaging regions: ODB_REGIONS

   Element Label      Node Label         S.Mises         S.Mises
                                          @Loc 1          @Loc 2
-----------------------------------------------------------------
             645               2     34.5962E-03     35.0487E-03
            1858               2     34.5962E-03     35.0487E-03
            2023               3         1.41160         1.52730
            1648               3         1.41160         1.52730
            1618               5     34.3598E-03     34.8106E-03
             675               5     34.3598E-03     34.8106E-03
            1643               6     91.3708E-06     149.002E-06
             641               8     99.5501E-03     99.9154E-03
            1622               8     99.5501E-03     99.9154E-03
             671               8     99.5501E-03     99.9154E-03
            1862               8     99.5501E-03     99.9154E-03
             670               9     91.3708E-06     149.002E-06
            1647              10     338.114E-06     333.028E-06
             666              10     338.114E-06     333.028E-06
            2725              11         1.40988         1.52549
             840              11         1.40988         1.52549
             836              12     317.639E-03     316.958E-03
            2721              12     317.639E-03     316.958E-03
            1652              12     317.639E-03     316.958E-03
            2027              12     317.639E-03     316.958E-03
            1668              16         1.59645         1.76254
            2145              16         1.59645         1.76254
            1672              19     500.481E-03     498.071E-03
            1833              19     500.481E-03     498.071E-03
            2149              19     500.481E-03     498.071E-03
            2741              19     500.481E-03     498.071E-03
            1837              20         1.62262         1.78799
            2745              20         1.62262         1.78799
            2764              21         1.03626         1.16854
            2165              21         1.03626         1.16854
            1857              23         1.03848         1.17214
            2174              23         1.03848         1.17214
            1853              24     758.525E-03     765.622E-03
            2170              24     758.525E-03     765.622E-03
            2169              24     758.525E-03     765.622E-03
            2768              24     758.525E-03     765.622E-03
            3191              26     78.2876E-03     79.3206E-03
            2224              26     78.2876E-03     79.3206E-03
            2220              27     244.037E-03     244.940E-03
            2856              27     244.037E-03     244.940E-03
            3187              27     244.037E-03     244.940E-03
            2818              27     244.037E-03     244.940E-03
            2852              28     89.8998E-03     90.9380E-03
            2814              28     89.8998E-03     90.9380E-03
            2877              31     91.1525E-06     149.068E-06
            3216              34     91.1525E-06     149.068E-06
            3212              35     337.969E-06     332.957E-06
            2881              35     337.969E-06     332.957E-06
            1863              51     63.8160E-03     77.4256E-03
            1858              51     63.8160E-03     77.4256E-03
            1863              52     42.3203E-03     65.7171E-03
            1868              52     42.3203E-03     65.7171E-03
            1873              53     71.9215E-03     77.7898E-03
            1868              53     71.9215E-03     77.7898E-03
            1873              54     158.250E-03     143.712E-03
            1878              54     158.250E-03     143.712E-03
            1883              55     217.534E-03     237.212E-03
            1878              55     217.534E-03     237.212E-03
            1888              56     322.047E-03     306.330E-03
            1883              56     322.047E-03     306.330E-03
            1893              57     404.059E-03     401.796E-03
            1888              57     404.059E-03     401.796E-03
            1898              58     339.941E-03     376.992E-03
            1893              58     339.941E-03     376.992E-03
            1898              59     313.799E-03     299.463E-03
            1903              59     313.799E-03     299.463E-03
            1908              60     388.027E-03     367.326E-03
            1903              60     388.027E-03     367.326E-03
            1913              61     442.958E-03     470.983E-03
            1908              61     442.958E-03     470.983E-03
            1918              62     565.270E-03     538.477E-03
            1913              62     565.270E-03     538.477E-03
            1918              63     654.781E-03     644.448E-03
            1923              63     654.781E-03     644.448E-03
            1928              64     580.683E-03     646.368E-03
            1923              64     580.683E-03     646.368E-03
            1928              65     577.466E-03     546.098E-03
            1933              65     577.466E-03     546.098E-03
            1938              66     629.351E-03     620.629E-03
            1933              66     629.351E-03     620.629E-03
            1943              67     696.068E-03     689.927E-03
            1938              67     696.068E-03     689.927E-03
            1948              68     755.700E-03     784.220E-03
            1943              68     755.700E-03     784.220E-03
            1953              69     884.172E-03     853.368E-03
            1948              69     884.172E-03     853.368E-03
            1953              70     981.552E-03     959.518E-03
            1958              70     981.552E-03     959.518E-03
            1958              71     878.776E-03     978.539E-03
            1963              71     878.776E-03     978.539E-03
            1963              72     888.552E-03     846.394E-03
            1968              72     888.552E-03     846.394E-03
            1968              73     932.501E-03     915.754E-03
            1973              73     932.501E-03     915.754E-03
            1978              74     987.038E-03     985.412E-03
            1973              74     987.038E-03     985.412E-03
            1978              75         1.04683         1.07996
            1983              75         1.04683         1.07996
            1988              76         1.18802         1.14916
            1983              76         1.18802         1.14916
            1993              77         1.29409         1.26134
            1988              77         1.29409         1.26134
            1993              78         1.17043         1.30099
            1998              78         1.17043         1.30099
            2003              79         1.19164         1.15327
            1998              79         1.19164         1.15327
            2008              80         1.25607         1.19143
            2003              80         1.25607         1.19143
            2008              81         1.24986         1.32939
            2013              81         1.24986         1.32939
            2013              82         1.43475         1.36413
            2018              82         1.43475         1.36413
            2018              83         1.53639         1.50252
            2023              83         1.53639         1.50252
            1623             147     402.481E-06     400.664E-06
            1618             147     402.481E-06     400.664E-06
            1623             148     293.767E-06     283.980E-06
            1628             148     293.767E-06     283.980E-06
            1633             149     173.079E-06     188.838E-06
            1628             149     173.079E-06     188.838E-06
            1633             150     113.470E-06     97.7066E-06
            1638             150     113.470E-06     97.7066E-06
            1643             151     80.5978E-06     116.277E-06
            1638             151     80.5978E-06     116.277E-06
            1861             172     95.7429E-03     96.1141E-03
             641             172     95.7429E-03     96.1141E-03
             642             172     95.7429E-03     96.1141E-03
            1862             172     95.7429E-03     96.1141E-03
             643             173     84.6731E-03     85.0652E-03
            1860             173     84.6731E-03     85.0652E-03
            1861             173     84.6731E-03     85.0652E-03
             642             173     84.6731E-03     85.0652E-03
             643             174     67.4792E-03     67.9069E-03
             644             174     67.4792E-03     67.9069E-03
            1859             174     67.4792E-03     67.9069E-03
            1860             174     67.4792E-03     67.9069E-03
             645             175     46.0680E-03     46.5185E-03
            1859             175     46.0680E-03     46.5185E-03
            1858             175     46.0680E-03     46.5185E-03
             644             175     46.0680E-03     46.5185E-03
             645             176     402.481E-06     400.664E-06
             650             176     402.481E-06     400.664E-06
             655             177     293.767E-06     283.980E-06
             650             177     293.767E-06     283.980E-06
             660             178     173.079E-06     188.838E-06
             655             178     173.079E-06     188.838E-06
             665             179     113.470E-06     97.7066E-06
             660             179     113.470E-06     97.7066E-06
             670             180     80.5978E-06     116.277E-06
             665             180     80.5978E-06     116.277E-06
             670             181     104.284E-06     136.057E-06
             669             181     104.284E-06     136.057E-06
             669             182     160.881E-06     166.462E-06
             668             182     160.881E-06     166.462E-06
             667             183     251.725E-06     251.224E-06
             668             183     251.725E-06     251.224E-06
             666             184     318.500E-06     312.832E-06
             667             184     318.500E-06     312.832E-06
            1647             185     342.665E-06     336.235E-06
             666             185     342.665E-06     336.235E-06
             661             185     342.665E-06     336.235E-06
            1642             185     342.665E-06     336.235E-06
            1642             186     345.324E-06     338.561E-06
             656             186     345.324E-06     338.561E-06
            1637             186     345.324E-06     338.561E-06
             661             186     345.324E-06     338.561E-06
             651             187     341.559E-06     340.133E-06
            1632             187     341.559E-06     340.133E-06
            1637             187     341.559E-06     340.133E-06
             656             187     341.559E-06     340.133E-06
             651             188     345.086E-06     342.682E-06
            1632             188     345.086E-06     342.682E-06
            1627             188     345.086E-06     342.682E-06
             646             188     345.086E-06     342.682E-06
             646             189     343.667E-06     335.388E-06
            1622             189     343.667E-06     335.388E-06
            1627             189     343.667E-06     335.388E-06
             641             189     343.667E-06     335.388E-06
             672             190     95.7107E-03     96.0813E-03
            1622             190     95.7107E-03     96.0813E-03
            1621             190     95.7107E-03     96.0813E-03
             671             190     95.7107E-03     96.0813E-03
            1621             191     84.6056E-03     84.9966E-03
             673             191     84.6056E-03     84.9966E-03
            1620             191     84.6056E-03     84.9966E-03
             672             191     84.6056E-03     84.9966E-03
             673             192     67.3671E-03     67.7932E-03
             674             192     67.3671E-03     67.7932E-03
            1619             192     67.3671E-03     67.7932E-03
            1620             192     67.3671E-03     67.7932E-03
            1619             193     45.8810E-03     46.3296E-03
             675             193     45.8810E-03     46.3296E-03
            1618             193     45.8810E-03     46.3296E-03
             674             193     45.8810E-03     46.3296E-03
             675             194     63.9502E-03     77.9787E-03
             680             194     63.9502E-03     77.9787E-03
             685             195     42.0001E-03     65.8249E-03
             680             195     42.0001E-03     65.8249E-03
             685             196     70.4128E-03     76.1767E-03
             690             196     70.4128E-03     76.1767E-03
             690             197     156.523E-03     141.980E-03
             695             197     156.523E-03     141.980E-03
             695             198     215.807E-03     235.472E-03
             700             198     215.807E-03     235.472E-03
             700             199     320.219E-03     304.576E-03
             705             199     320.219E-03     304.576E-03
             710             200     402.151E-03     399.973E-03
             705             200     402.151E-03     399.973E-03
             710             201     338.172E-03     375.014E-03
             715             201     338.172E-03     375.014E-03
             720             202     311.938E-03     297.677E-03
             715             202     311.938E-03     297.677E-03
             725             203     386.200E-03     365.627E-03
             720             203     386.200E-03     365.627E-03
             725             204     441.285E-03     469.212E-03
             730             204     441.285E-03     469.212E-03
             735             205     563.443E-03     536.772E-03
             730             205     563.443E-03     536.772E-03
             735             206     652.896E-03     642.634E-03
             740             206     652.896E-03     642.634E-03
             745             207     578.901E-03     644.372E-03
             740             207     578.901E-03     644.372E-03
             745             208     575.570E-03     544.285E-03
             750             208     575.570E-03     544.285E-03
             755             209     627.525E-03     618.876E-03
             750             209     627.525E-03     618.876E-03
             760             210     694.334E-03     688.185E-03
             755             210     694.334E-03     688.185E-03
             765             211     753.966E-03     782.477E-03
             760             211     753.966E-03     782.477E-03
             765             212     882.345E-03     851.613E-03
             770             212     882.345E-03     851.613E-03
             770             213     979.641E-03     957.693E-03
             775             213     979.641E-03     957.693E-03
             775             214     876.980E-03     976.524E-03
             780             214     876.980E-03     976.524E-03
             785             215     886.650E-03     844.575E-03
             780             215     886.650E-03     844.575E-03
             790             216     930.674E-03     914.001E-03
             785             216     930.674E-03     914.001E-03
             795             217     985.304E-03     983.669E-03
             790             217     985.304E-03     983.669E-03
             795             218         1.04509         1.07822
             800             218         1.04509         1.07822
             805             219         1.18619         1.14741
             800             219         1.18619         1.14741
             805             220         1.29217         1.25951
             810             220         1.29217         1.25951
             810             221         1.16864         1.29899
             815             221         1.16864         1.29899
             820             222         1.18976         1.15146
             815             222         1.18976         1.15146
             825             223         1.25424         1.18973
             820             223         1.25424         1.18973
             825             224         1.24819         1.32762
             830             224         1.24819         1.32762
             835             225         1.43292         1.36243
             830             225         1.43292         1.36243
             840             226         1.53451         1.50071
             835             226         1.53451         1.50071
             839             227         1.29650         1.44556
             840             227         1.29650         1.44556
            2724             227         1.29650         1.44556
            2725             227         1.29650         1.44556
            2723             228         1.06850         1.21764
            2724             228         1.06850         1.21764
             838             228         1.06850         1.21764
             839             228         1.06850         1.21764
             838             229     795.181E-03     875.463E-03
            2723             229     795.181E-03     875.463E-03
             837             229     795.181E-03     875.463E-03
            2722             229     795.181E-03     875.463E-03
            2721             230     476.302E-03     498.325E-03
            2722             230     476.302E-03     498.325E-03
             837             230     476.302E-03     498.325E-03
             836             230     476.302E-03     498.325E-03
             836             231     383.053E-03     368.848E-03
            2027             231     383.053E-03     368.848E-03
             831             231     383.053E-03     368.848E-03
            2022             231     383.053E-03     368.848E-03
            2022             232     388.361E-03     399.098E-03
             826             232     388.361E-03     399.098E-03
             831             232     388.361E-03     399.098E-03
            2017             232     388.361E-03     399.098E-03
             821             233     381.487E-03     398.411E-03
            2017             233     381.487E-03     398.411E-03
             826             233     381.487E-03     398.411E-03
            2012             233     381.487E-03     398.411E-03
            2007             234     392.556E-03     373.363E-03
             816             234     392.556E-03     373.363E-03
             821             234     392.556E-03     373.363E-03
            2012             234     392.556E-03     373.363E-03
             811             235     379.671E-03     377.727E-03
            2007             235     379.671E-03     377.727E-03
             816             235     379.671E-03     377.727E-03
            2002             235     379.671E-03     377.727E-03
            1997             236     356.477E-03     364.446E-03
             806             236     356.477E-03     364.446E-03
             811             236     356.477E-03     364.446E-03
            2002             236     356.477E-03     364.446E-03
             801             237     364.089E-03     353.463E-03
            1992             237     364.089E-03     353.463E-03
             806             237     364.089E-03     353.463E-03
            1997             237     364.089E-03     353.463E-03
            1987             238     367.874E-03     379.547E-03
             801             238     367.874E-03     379.547E-03
             796             238     367.874E-03     379.547E-03
            1992             238     367.874E-03     379.547E-03
            1982             239     359.728E-03     375.424E-03
             791             239     359.728E-03     375.424E-03
            1987             239     359.728E-03     375.424E-03
             796             239     359.728E-03     375.424E-03
            1977             240     370.863E-03     361.628E-03
             786             240     370.863E-03     361.628E-03
            1982             240     370.863E-03     361.628E-03
             791             240     370.863E-03     361.628E-03
            1977             241     365.659E-03     349.408E-03
             781             241     365.659E-03     349.408E-03
             786             241     365.659E-03     349.408E-03
            1972             241     365.659E-03     349.408E-03
             776             242     355.674E-03     351.054E-03
             781             242     355.674E-03     351.054E-03
            1972             242     355.674E-03     351.054E-03
            1967             242     355.674E-03     351.054E-03
            1967             243     341.980E-03     343.013E-03
             776             243     341.980E-03     343.013E-03
             771             243     341.980E-03     343.013E-03
            1962             243     341.980E-03     343.013E-03
             771             244     344.724E-03     335.901E-03
            1962             244     344.724E-03     335.901E-03
            1957             244     344.724E-03     335.901E-03
             766             244     344.724E-03     335.901E-03
            1957             245     346.313E-03     355.330E-03
            1952             245     346.313E-03     355.330E-03
             761             245     346.313E-03     355.330E-03
             766             245     346.313E-03     355.330E-03
             756             246     339.769E-03     350.141E-03
            1947             246     339.769E-03     350.141E-03
             761             246     339.769E-03     350.141E-03
            1952             246     339.769E-03     350.141E-03
            1942             247     348.175E-03     339.622E-03
             756             247     348.175E-03     339.622E-03
             751             247     348.175E-03     339.622E-03
            1947             247     348.175E-03     339.622E-03
             751             248     344.618E-03     332.624E-03
            1942             248     344.618E-03     332.624E-03
            1937             248     344.618E-03     332.624E-03
             746             248     344.618E-03     332.624E-03
            1932             249     338.294E-03     334.186E-03
             746             249     338.294E-03     334.186E-03
            1937             249     338.294E-03     334.186E-03
             741             249     338.294E-03     334.186E-03
             741             250     328.187E-03     326.399E-03
            1932             250     328.187E-03     326.399E-03
             736             250     328.187E-03     326.399E-03
            1927             250     328.187E-03     326.399E-03
            1927             251     328.102E-03     320.372E-03
             736             251     328.102E-03     320.372E-03
            1922             251     328.102E-03     320.372E-03
             731             251     328.102E-03     320.372E-03
            1917             252     329.081E-03     332.767E-03
            1922             252     329.081E-03     332.767E-03
             731             252     329.081E-03     332.767E-03
             726             252     329.081E-03     332.767E-03
             726             253     326.207E-03     328.722E-03
            1912             253     326.207E-03     328.722E-03
             721             253     326.207E-03     328.722E-03
            1917             253     326.207E-03     328.722E-03
             721             254     330.720E-03     322.061E-03
            1907             254     330.720E-03     322.061E-03
            1912             254     330.720E-03     322.061E-03
             716             254     330.720E-03     322.061E-03
            1907             255     326.551E-03     324.121E-03
            1902             255     326.551E-03     324.121E-03
             711             255     326.551E-03     324.121E-03
             716             255     326.551E-03     324.121E-03
            1902             256     320.408E-03     318.185E-03
             706             256     320.408E-03     318.185E-03
             711             256     320.408E-03     318.185E-03
            1897             256     320.408E-03     318.185E-03
             706             257     322.889E-03     317.040E-03
            1892             257     322.889E-03     317.040E-03
            1897             257     322.889E-03     317.040E-03
             701             257     322.889E-03     317.040E-03
             701             258     323.058E-03     325.263E-03
            1887             258     323.058E-03     325.263E-03
             696             258     323.058E-03     325.263E-03
            1892             258     323.058E-03     325.263E-03
            1882             259     320.138E-03     321.104E-03
            1887             259     320.138E-03     321.104E-03
             696             259     320.138E-03     321.104E-03
             691             259     320.138E-03     321.104E-03
            1877             260     322.436E-03     318.193E-03
            1882             260     322.436E-03     318.193E-03
             686             260     322.436E-03     318.193E-03
             691             260     322.436E-03     318.193E-03
             686             261     322.588E-03     319.070E-03
            1872             261     322.588E-03     319.070E-03
             681             261     322.588E-03     319.070E-03
            1877             261     322.588E-03     319.070E-03
             676             262     321.107E-03     316.606E-03
            1872             262     321.107E-03     316.606E-03
             681             262     321.107E-03     316.606E-03
            1867             262     321.107E-03     316.606E-03
             676             263     259.073E-03     257.507E-03
             671             263     259.073E-03     257.507E-03
            1867             263     259.073E-03     257.507E-03
            1862             263     259.073E-03     257.507E-03
            1648             314         1.36522         1.41447
            1653             314         1.36522         1.41447
            1653             315         1.45805         1.46388
            1658             315         1.45805         1.46388
            1663             316         1.62846         1.50483
            1658             316         1.62846         1.50483
            1663             317         1.67453         1.67503
            1668             317         1.67453         1.67503
            1646             358     318.500E-06     312.832E-06
            1647             358     318.500E-06     312.832E-06
            1646             359     251.725E-06     251.224E-06
            1645             359     251.725E-06     251.224E-06
            1644             360     160.881E-06     166.462E-06
            1645             360     160.881E-06     166.462E-06
            1643             361     104.284E-06     136.057E-06
            1644             361     104.284E-06     136.057E-06
            2023             362         1.29864         1.44782
            1649             362         1.29864         1.44782
            2024             362         1.29864         1.44782
            1648             362         1.29864         1.44782
            1650             363         1.07143         1.22070
            2025             363         1.07143         1.22070
            1649             363         1.07143         1.22070
            2024             363         1.07143         1.22070
            2026             364     798.690E-03     879.098E-03
            1650             364     798.690E-03     879.098E-03
            1651             364     798.690E-03     879.098E-03
            2025             364     798.690E-03     879.098E-03
            2027             365     479.678E-03     501.841E-03
            1651             365     479.678E-03     501.841E-03
            1652             365     479.678E-03     501.841E-03
            2026             365     479.678E-03     501.841E-03
            2726             366     323.126E-03     337.982E-03
            1652             366     323.126E-03     337.982E-03
            1657             366     323.126E-03     337.982E-03
            2721             366     323.126E-03     337.982E-03
            2731             367     361.828E-03     383.670E-03
            1662             367     361.828E-03     383.670E-03
            2726             367     361.828E-03     383.670E-03
            1657             367     361.828E-03     383.670E-03
            1667             368     383.917E-03     375.983E-03
            1662             368     383.917E-03     375.983E-03
            2736             368     383.917E-03     375.983E-03
            2731             368     383.917E-03     375.983E-03
            2741             369     377.688E-03     361.949E-03
            1672             369     377.688E-03     361.949E-03
            2736             369     377.688E-03     361.949E-03
            1667             369     377.688E-03     361.949E-03
            2148             370     637.485E-03     662.254E-03
            1672             370     637.485E-03     662.254E-03
            1671             370     637.485E-03     662.254E-03
            2149             370     637.485E-03     662.254E-03
            2147             371     932.987E-03         1.02546
            1671             371     932.987E-03         1.02546
            2148             371     932.987E-03         1.02546
            1670             371     932.987E-03         1.02546
            1670             372         1.19751         1.36516
            2146             372         1.19751         1.36516
            2147             372         1.19751         1.36516
            1669             372         1.19751         1.36516
            2145             373         1.45212         1.63927
            1668             373         1.45212         1.63927
            1669             373         1.45212         1.63927
            2146             373         1.45212         1.63927
            2740             389         1.71335         1.70747
            2745             389         1.71335         1.70747
            2735             390         1.64640         1.52309
            2740             390         1.64640         1.52309
            2735             391         1.45254         1.46566
            2730             391         1.45254         1.46566
            2725             392         1.35946         1.41081
            2730             392         1.35946         1.41081
            2145             393         1.45472         1.47816
            2150             393         1.45472         1.47816
            2155             394         1.38453         1.45479
            2150             394         1.38453         1.45479
            2160             395         1.40666         1.39085
            2155             395         1.40666         1.39085
            2165             396         1.18947         1.07064
            2160             396         1.18947         1.07064
            2741             416     647.855E-03     685.340E-03
            2742             416     647.855E-03     685.340E-03
            1834             416     647.855E-03     685.340E-03
            1833             416     647.855E-03     685.340E-03
            1834             417     945.158E-03         1.05135
            1835             417     945.158E-03         1.05135
            2743             417     945.158E-03         1.05135
            2742             417     945.158E-03         1.05135
            2744             418         1.21265         1.39057
            2743             418         1.21265         1.39057
            1836             418         1.21265         1.39057
            1835             418         1.21265         1.39057
            1837             419         1.47428         1.66444
            1836             419         1.47428         1.66444
            2744             419         1.47428         1.66444
            2745             419         1.47428         1.66444
            1837             420         1.46723         1.49057
            1842             420         1.46723         1.49057
            1842             421         1.39878         1.46756
            1847             421         1.39878         1.46756
            1852             422         1.42037         1.40293
            1847             422         1.42037         1.40293
            1852             423         1.19349         1.07575
            1857             423         1.19349         1.07575
            1856             424     969.999E-03         1.15110
            1857             424     969.999E-03         1.15110
            2174             424     969.999E-03         1.15110
            2173             424     969.999E-03         1.15110
            2172             425     885.956E-03         1.06220
            2173             425     885.956E-03         1.06220
            1855             425     885.956E-03         1.06220
            1856             425     885.956E-03         1.06220
            2171             426     833.692E-03     919.837E-03
            1854             426     833.692E-03     919.837E-03
            2172             426     833.692E-03     919.837E-03
            1855             426     833.692E-03     919.837E-03
            1854             427     777.185E-03     805.104E-03
            2171             427     777.185E-03     805.104E-03
            1853             427     777.185E-03     805.104E-03
            2170             427     777.185E-03     805.104E-03
            2164             428     781.535E-03     786.904E-03
            1848             428     781.535E-03     786.904E-03
            1853             428     781.535E-03     786.904E-03
            2169             428     781.535E-03     786.904E-03
            2164             429     790.684E-03     760.831E-03
            2159             429     790.684E-03     760.831E-03
            1848             429     790.684E-03     760.831E-03
            1843             429     790.684E-03     760.831E-03
            1843             430     838.724E-03     818.996E-03
            1838             430     838.724E-03     818.996E-03
            2159             430     838.724E-03     818.996E-03
            2154             430     838.724E-03     818.996E-03
            2149             431     780.841E-03     772.506E-03
            2154             431     780.841E-03     772.506E-03
            1833             431     780.841E-03     772.506E-03
            1838             431     780.841E-03     772.506E-03
            2168             440     781.648E-03     807.787E-03
            2767             440     781.648E-03     807.787E-03
            2169             440     781.648E-03     807.787E-03
            2768             440     781.648E-03     807.787E-03
            2168             441     840.213E-03     923.358E-03
            2767             441     840.213E-03     923.358E-03
            2167             441     840.213E-03     923.358E-03
            2766             441     840.213E-03     923.358E-03
            2765             442     891.093E-03         1.06400
            2167             442     891.093E-03         1.06400
            2166             442     891.093E-03         1.06400
            2766             442     891.093E-03         1.06400
            2166             443     970.823E-03         1.14951
            2165             443     970.823E-03         1.14951
            2764             443     970.823E-03         1.14951
            2765             443     970.823E-03         1.14951
            2174             444         1.08046         1.07711
            2179             444         1.08046         1.07711
            2179             445     877.290E-03     764.201E-03
            2184             445     877.290E-03     764.201E-03
            2189             446     823.334E-03     935.226E-03
            2184             446     823.334E-03     935.226E-03
            2194             447     968.533E-03     963.667E-03
            2189             447     968.533E-03     963.667E-03
            2194             448     772.061E-03     732.157E-03
            2199             448     772.061E-03     732.157E-03
            2204             449     517.624E-03     565.907E-03
            2199             449     517.624E-03     565.907E-03
            2204             450     373.582E-03     338.864E-03
            2209             450     373.582E-03     338.864E-03
            2214             451     160.128E-03     178.539E-03
            2209             451     160.128E-03     178.539E-03
            2219             452     89.0984E-03     156.749E-03
            2214             452     89.0984E-03     156.749E-03
            2224             453     145.323E-03     184.487E-03
            2219             453     145.323E-03     184.487E-03
            3190             454     106.949E-03     107.969E-03
            2224             454     106.949E-03     107.969E-03
            3191             454     106.949E-03     107.969E-03
            2223             454     106.949E-03     107.969E-03
            2222             455     160.602E-03     161.582E-03
            3190             455     160.602E-03     161.582E-03
            2223             455     160.602E-03     161.582E-03
            3189             455     160.602E-03     161.582E-03
            2222             456     204.148E-03     205.082E-03
            2221             456     204.148E-03     205.082E-03
            3188             456     204.148E-03     205.082E-03
            3189             456     204.148E-03     205.082E-03
            3188             457     232.929E-03     233.838E-03
            2221             457     232.929E-03     233.838E-03
            3187             457     232.929E-03     233.838E-03
            2220             457     232.929E-03     233.838E-03
            2818             458     634.785E-03     631.194E-03
            2813             458     634.785E-03     631.194E-03
            2215             458     634.785E-03     631.194E-03
            2220             458     634.785E-03     631.194E-03
            2210             459     786.171E-03     775.583E-03
            2813             459     786.171E-03     775.583E-03
            2808             459     786.171E-03     775.583E-03
            2215             459     786.171E-03     775.583E-03
            2803             460     790.088E-03     781.583E-03
            2205             460     790.088E-03     781.583E-03
            2210             460     790.088E-03     781.583E-03
            2808             460     790.088E-03     781.583E-03
            2200             461     789.488E-03     779.357E-03
            2205             461     789.488E-03     779.357E-03
            2798             461     789.488E-03     779.357E-03
            2803             461     789.488E-03     779.357E-03
            2793             462     783.888E-03     786.197E-03
            2798             462     783.888E-03     786.197E-03
            2195             462     783.888E-03     786.197E-03
            2200             462     783.888E-03     786.197E-03
            2788             463     790.961E-03     795.619E-03
            2195             463     790.961E-03     795.619E-03
            2190             463     790.961E-03     795.619E-03
            2793             463     790.961E-03     795.619E-03
            2783             464     789.968E-03     775.467E-03
            2190             464     789.968E-03     775.467E-03
            2788             464     789.968E-03     775.467E-03
            2185             464     789.968E-03     775.467E-03
            2778             465     762.395E-03     769.725E-03
            2783             465     762.395E-03     769.725E-03
            2180             465     762.395E-03     769.725E-03
            2185             465     762.395E-03     769.725E-03
            2180             466     769.230E-03     771.860E-03
            2175             466     769.230E-03     771.860E-03
            2778             466     769.230E-03     771.860E-03
            2773             466     769.230E-03     771.860E-03
            2773             467     775.797E-03     748.500E-03
            2175             467     775.797E-03     748.500E-03
            2768             467     775.797E-03     748.500E-03
            2170             467     775.797E-03     748.500E-03
            2769             470         1.07307         1.07091
            2764             470         1.07307         1.07091
            2769             471     878.321E-03     763.984E-03
            2774             471     878.321E-03     763.984E-03
            2774             472     826.375E-03     937.633E-03
            2779             472     826.375E-03     937.633E-03
            2779             473     966.891E-03     963.089E-03
            2784             473     966.891E-03     963.089E-03
            2789             474     772.917E-03     732.352E-03
            2784             474     772.917E-03     732.352E-03
            2789             475     519.828E-03     568.058E-03
            2794             475     519.828E-03     568.058E-03
            2799             476     377.596E-03     342.035E-03
            2794             476     377.596E-03     342.035E-03
            2799             477     176.652E-03     185.976E-03
            2804             477     176.652E-03     185.976E-03
            2809             478     111.903E-03     165.097E-03
            2804             478     111.903E-03     165.097E-03
            2809             479     166.429E-03     198.798E-03
            2814             479     166.429E-03     198.798E-03
            2857             562     400.369E-06     398.709E-06
            2852             562     400.369E-06     398.709E-06
            2857             563     292.517E-06     282.471E-06
            2862             563     292.517E-06     282.471E-06
            2867             564     172.142E-06     187.986E-06
            2862             564     172.142E-06     187.986E-06
            2872             565     113.218E-06     97.4709E-06
            2867             565     113.218E-06     97.4709E-06
            2872             566     80.7501E-06     116.273E-06
            2877             566     80.7501E-06     116.273E-06
            3211             596     80.7501E-06     116.273E-06
            3216             596     80.7501E-06     116.273E-06
            3206             597     113.218E-06     97.4709E-06
            3211             597     113.218E-06     97.4709E-06
            3206             598     172.142E-06     187.986E-06
            3201             598     172.142E-06     187.986E-06
            3196             599     292.517E-06     282.471E-06
            3201             599     292.517E-06     282.471E-06
            3196             600     400.369E-06     398.709E-06
            3191             600     400.369E-06     398.709E-06
            2817             601     236.377E-03     237.289E-03
            2856             601     236.377E-03     237.289E-03
            2855             601     236.377E-03     237.289E-03
            2818             601     236.377E-03     237.289E-03
            2854             602     210.735E-03     211.676E-03
            2816             602     210.735E-03     211.676E-03
            2817             602     210.735E-03     211.676E-03
            2855             602     210.735E-03     211.676E-03
            2853             603     169.748E-03     170.736E-03
            2816             603     169.748E-03     170.736E-03
            2854             603     169.748E-03     170.736E-03
            2815             603     169.748E-03     170.736E-03
            2852             604     117.880E-03     118.907E-03
            2815             604     117.880E-03     118.907E-03
            2814             604     117.880E-03     118.907E-03
            2853             604     117.880E-03     118.907E-03
            3192             607     343.500E-06     335.182E-06
            2861             607     343.500E-06     335.182E-06
            3187             607     343.500E-06     335.182E-06
            2856             607     343.500E-06     335.182E-06
            2866             608     344.966E-06     342.488E-06
            3197             608     344.966E-06     342.488E-06
            3192             608     344.966E-06     342.488E-06
            2861             608     344.966E-06     342.488E-06
            3202             609     341.441E-06     340.042E-06
            2871             609     341.441E-06     340.042E-06
            2866             609     341.441E-06     340.042E-06
            3197             609     341.441E-06     340.042E-06
            2871             610     345.189E-06     338.446E-06
            3202             610     345.189E-06     338.446E-06
            3207             610     345.189E-06     338.446E-06
            2876             610     345.189E-06     338.446E-06
            2876             611     342.533E-06     336.117E-06
            3212             611     342.533E-06     336.117E-06
            3207             611     342.533E-06     336.117E-06
            2881             611     342.533E-06     336.117E-06
            2880             612     318.431E-06     312.801E-06
            2881             612     318.431E-06     312.801E-06
            2880             613     251.767E-06     251.230E-06
            2879             613     251.767E-06     251.230E-06
            2879             614     160.872E-06     166.374E-06
            2878             614     160.872E-06     166.374E-06
            2877             615     104.128E-06     136.001E-06
            2878             615     104.128E-06     136.001E-06
            3216             631     104.128E-06     136.001E-06
            3215             631     104.128E-06     136.001E-06
            3215             632     160.872E-06     166.374E-06
            3214             632     160.872E-06     166.374E-06
            3213             633     251.767E-06     251.230E-06
            3214             633     251.767E-06     251.230E-06
            3213             634     318.431E-06     312.801E-06
            3212             634     318.431E-06     312.801E-06
             647            1205     340.317E-06     330.435E-06
             641            1205     340.317E-06     330.435E-06
             642            1205     340.317E-06     330.435E-06
             646            1205     340.317E-06     330.435E-06
             648            1206     323.403E-06     313.472E-06
             647            1206     323.403E-06     313.472E-06
             643            1206     323.403E-06     313.472E-06
             642            1206     323.403E-06     313.472E-06
             649            1207     309.194E-06     306.703E-06
             648            1207     309.194E-06     306.703E-06
             643            1207     309.194E-06     306.703E-06
             644            1207     309.194E-06     306.703E-06
             645            1208     355.514E-06     356.304E-06
             650            1208     355.514E-06     356.304E-06
             644            1208     355.514E-06     356.304E-06
             649            1208     355.514E-06     356.304E-06
             646            1209     336.654E-06     330.811E-06
             651            1209     336.654E-06     330.811E-06
             647            1209     336.654E-06     330.811E-06
             652            1209     336.654E-06     330.811E-06
             648            1210     309.763E-06     294.481E-06
             652            1210     309.763E-06     294.481E-06
             653            1210     309.763E-06     294.481E-06
             647            1210     309.763E-06     294.481E-06
             654            1211     277.145E-06     258.109E-06
             648            1211     277.145E-06     258.109E-06
             649            1211     277.145E-06     258.109E-06
             653            1211     277.145E-06     258.109E-06
             649            1212     278.376E-06     265.088E-06
             654            1212     278.376E-06     265.088E-06
             650            1212     278.376E-06     265.088E-06
             655            1212     278.376E-06     265.088E-06
             657            1213     323.061E-06     324.742E-06
             656            1213     323.061E-06     324.742E-06
             652            1213     323.061E-06     324.742E-06
             651            1213     323.061E-06     324.742E-06
             657            1214     274.166E-06     282.384E-06
             658            1214     274.166E-06     282.384E-06
             653            1214     274.166E-06     282.384E-06
             652            1214     274.166E-06     282.384E-06
             653            1215     203.454E-06     216.928E-06
             659            1215     203.454E-06     216.928E-06
             658            1215     203.454E-06     216.928E-06
             654            1215     203.454E-06     216.928E-06
             659            1216     168.109E-06     183.638E-06
             654            1216     168.109E-06     183.638E-06
             660            1216     168.109E-06     183.638E-06
             655            1216     168.109E-06     183.638E-06
             661            1217     323.963E-06     319.155E-06
             662            1217     323.963E-06     319.155E-06
             657            1217     323.963E-06     319.155E-06
             656            1217     323.963E-06     319.155E-06
             657            1218     265.593E-06     264.713E-06
             658            1218     265.593E-06     264.713E-06
             663            1218     265.593E-06     264.713E-06
             662            1218     265.593E-06     264.713E-06
             658            1219     179.501E-06     173.225E-06
             663            1219     179.501E-06     173.225E-06
             664            1219     179.501E-06     173.225E-06
             659            1219     179.501E-06     173.225E-06
             665            1220     121.942E-06     107.240E-06
             660            1220     121.942E-06     107.240E-06
             664            1220     121.942E-06     107.240E-06
             659            1220     121.942E-06     107.240E-06
             661            1221     321.553E-06     315.907E-06
             667            1221     321.553E-06     315.907E-06
             666            1221     321.553E-06     315.907E-06
             662            1221     321.553E-06     315.907E-06
             662            1222     256.476E-06     257.073E-06
             667            1222     256.476E-06     257.073E-06
             663            1222     256.476E-06     257.073E-06
             668            1222     256.476E-06     257.073E-06
             669            1223     162.097E-06     170.795E-06
             663            1223     162.097E-06     170.795E-06
             664            1223     162.097E-06     170.795E-06
             668            1223     162.097E-06     170.795E-06
             664            1224     96.1412E-06     119.650E-06
             670            1224     96.1412E-06     119.650E-06
             665            1224     96.1412E-06     119.650E-06
             669            1224     96.1412E-06     119.650E-06
             672            1225     246.320E-03     244.967E-03
             677            1225     246.320E-03     244.967E-03
             671            1225     246.320E-03     244.967E-03
             676            1225     246.320E-03     244.967E-03
             673            1226     209.044E-03     209.415E-03
             672            1226     209.044E-03     209.415E-03
             677            1226     209.044E-03     209.415E-03
             678            1226     209.044E-03     209.415E-03
             678            1227     158.089E-03     159.388E-03
             673            1227     158.089E-03     159.388E-03
             679            1227     158.089E-03     159.388E-03
             674            1227     158.089E-03     159.388E-03
             679            1228     97.8152E-03     105.180E-03
             675            1228     97.8152E-03     105.180E-03
             674            1228     97.8152E-03     105.180E-03
             680            1228     97.8152E-03     105.180E-03
             676            1229     303.209E-03     299.872E-03
             677            1229     303.209E-03     299.872E-03
             681            1229     303.209E-03     299.872E-03
             682            1229     303.209E-03     299.872E-03
             682            1230     250.156E-03     253.899E-03
             677            1230     250.156E-03     253.899E-03
             683            1230     250.156E-03     253.899E-03
             678            1230     250.156E-03     253.899E-03
             683            1231     181.991E-03     188.636E-03
             684            1231     181.991E-03     188.636E-03
             678            1231     181.991E-03     188.636E-03
             679            1231     181.991E-03     188.636E-03
             680            1232     95.5062E-03     109.228E-03
             685            1232     95.5062E-03     109.228E-03
             679            1232     95.5062E-03     109.228E-03
             684            1232     95.5062E-03     109.228E-03
             681            1233     304.998E-03     303.865E-03
             687            1233     304.998E-03     303.865E-03
             686            1233     304.998E-03     303.865E-03
             682            1233     304.998E-03     303.865E-03
             682            1234     258.688E-03     263.560E-03
             688            1234     258.688E-03     263.560E-03
             683            1234     258.688E-03     263.560E-03
             687            1234     258.688E-03     263.560E-03
             688            1235     192.469E-03     197.790E-03
             683            1235     192.469E-03     197.790E-03
             684            1235     192.469E-03     197.790E-03
             689            1235     192.469E-03     197.790E-03
             690            1236     112.718E-03     116.675E-03
             684            1236     112.718E-03     116.675E-03
             689            1236     112.718E-03     116.675E-03
             685            1236     112.718E-03     116.675E-03
             686            1237     308.157E-03     307.057E-03
             687            1237     308.157E-03     307.057E-03
             691            1237     308.157E-03     307.057E-03
             692            1237     308.157E-03     307.057E-03
             688            1238     272.730E-03     271.300E-03
             687            1238     272.730E-03     271.300E-03
             692            1238     272.730E-03     271.300E-03
             693            1238     272.730E-03     271.300E-03
             688            1239     219.357E-03     211.367E-03
             693            1239     219.357E-03     211.367E-03
             689            1239     219.357E-03     211.367E-03
             694            1239     219.357E-03     211.367E-03
             689            1240     171.875E-03     159.062E-03
             695            1240     171.875E-03     159.062E-03
             690            1240     171.875E-03     159.062E-03
             694            1240     171.875E-03     159.062E-03
             696            1241     310.243E-03     313.843E-03
             692            1241     310.243E-03     313.843E-03
             697            1241     310.243E-03     313.843E-03
             691            1241     310.243E-03     313.843E-03
             692            1242     282.455E-03     291.553E-03
             697            1242     282.455E-03     291.553E-03
             693            1242     282.455E-03     291.553E-03
             698            1242     282.455E-03     291.553E-03
             694            1243     240.732E-03     260.609E-03
             698            1243     240.732E-03     260.609E-03
             699            1243     240.732E-03     260.609E-03
             693            1243     240.732E-03     260.609E-03
             694            1244     216.417E-03     240.158E-03
             699            1244     216.417E-03     240.158E-03
             695            1244     216.417E-03     240.158E-03
             700            1244     216.417E-03     240.158E-03
             696            1245     323.653E-03     319.598E-03
             697            1245     323.653E-03     319.598E-03
             702            1245     323.653E-03     319.598E-03
             701            1245     323.653E-03     319.598E-03
             698            1246     318.082E-03     303.108E-03
             697            1246     318.082E-03     303.108E-03
             702            1246     318.082E-03     303.108E-03
             703            1246     318.082E-03     303.108E-03
             698            1247     309.025E-03     292.232E-03
             703            1247     309.025E-03     292.232E-03
             704            1247     309.025E-03     292.232E-03
             699            1247     309.025E-03     292.232E-03
             705            1248     313.265E-03     298.461E-03
             699            1248     313.265E-03     298.461E-03
             700            1248     313.265E-03     298.461E-03
             704            1248     313.265E-03     298.461E-03
             702            1249     326.990E-03     318.172E-03
             701            1249     326.990E-03     318.172E-03
             706            1249     326.990E-03     318.172E-03
             707            1249     326.990E-03     318.172E-03
             708            1250     330.390E-03     318.991E-03
             703            1250     330.390E-03     318.991E-03
             707            1250     330.390E-03     318.991E-03
             702            1250     330.390E-03     318.991E-03
             703            1251     335.534E-03     331.365E-03
             708            1251     335.534E-03     331.365E-03
             709            1251     335.534E-03     331.365E-03
             704            1251     335.534E-03     331.365E-03
             704            1252     371.851E-03     372.098E-03
             709            1252     371.851E-03     372.098E-03
             710            1252     371.851E-03     372.098E-03
             705            1252     371.851E-03     372.098E-03
             711            1253     317.391E-03     319.094E-03
             707            1253     317.391E-03     319.094E-03
             712            1253     317.391E-03     319.094E-03
             706            1253     317.391E-03     319.094E-03
             712            1254     307.913E-03     331.061E-03
             707            1254     307.913E-03     331.061E-03
             708            1254     307.913E-03     331.061E-03
             713            1254     307.913E-03     331.061E-03
             714            1255     305.791E-03     359.389E-03
             713            1255     305.791E-03     359.389E-03
             709            1255     305.791E-03     359.389E-03
             708            1255     305.791E-03     359.389E-03
             709            1256     324.220E-03     375.928E-03
             715            1256     324.220E-03     375.928E-03
             710            1256     324.220E-03     375.928E-03
             714            1256     324.220E-03     375.928E-03
             717            1257     324.949E-03     323.425E-03
             716            1257     324.949E-03     323.425E-03
             711            1257     324.949E-03     323.425E-03
             712            1257     324.949E-03     323.425E-03
             712            1258     329.071E-03     330.378E-03
             718            1258     329.071E-03     330.378E-03
             717            1258     329.071E-03     330.378E-03
             713            1258     329.071E-03     330.378E-03
             718            1259     344.343E-03     348.501E-03
             713            1259     344.343E-03     348.501E-03
             719            1259     344.343E-03     348.501E-03
             714            1259     344.343E-03     348.501E-03
             715            1260     333.014E-03     328.413E-03
             720            1260     333.014E-03     328.413E-03
             719            1260     333.014E-03     328.413E-03
             714            1260     333.014E-03     328.413E-03
             717            1261     335.845E-03     330.652E-03
             716            1261     335.845E-03     330.652E-03
             722            1261     335.845E-03     330.652E-03
             721            1261     335.845E-03     330.652E-03
             723            1262     356.764E-03     351.400E-03
             717            1262     356.764E-03     351.400E-03
             722            1262     356.764E-03     351.400E-03
             718            1262     356.764E-03     351.400E-03
             718            1263     377.465E-03     369.946E-03
             724            1263     377.465E-03     369.946E-03
             723            1263     377.465E-03     369.946E-03
             719            1263     377.465E-03     369.946E-03
             720            1264     384.405E-03     371.093E-03
             725            1264     384.405E-03     371.093E-03
             724            1264     384.405E-03     371.093E-03
             719            1264     384.405E-03     371.093E-03
             721            1265     339.038E-03     347.271E-03
             722            1265     339.038E-03     347.271E-03
             726            1265     339.038E-03     347.271E-03
             727            1265     339.038E-03     347.271E-03
             722            1266     366.939E-03     388.368E-03
             727            1266     366.939E-03     388.368E-03
             723            1266     366.939E-03     388.368E-03
             728            1266     366.939E-03     388.368E-03
             723            1267     387.109E-03     429.457E-03
             724            1267     387.109E-03     429.457E-03
             728            1267     387.109E-03     429.457E-03
             729            1267     387.109E-03     429.457E-03
             725            1268     416.867E-03     458.755E-03
             724            1268     416.867E-03     458.755E-03
             730            1268     416.867E-03     458.755E-03
             729            1268     416.867E-03     458.755E-03
             727            1269     360.691E-03     355.641E-03
             726            1269     360.691E-03     355.641E-03
             731            1269     360.691E-03     355.641E-03
             732            1269     360.691E-03     355.641E-03
             732            1270     426.697E-03     399.766E-03
             728            1270     426.697E-03     399.766E-03
             727            1270     426.697E-03     399.766E-03
             733            1270     426.697E-03     399.766E-03
             728            1271     487.571E-03     457.095E-03
             734            1271     487.571E-03     457.095E-03
             733            1271     487.571E-03     457.095E-03
             729            1271     487.571E-03     457.095E-03
             729            1272     538.904E-03     515.118E-03
             735            1272     538.904E-03     515.118E-03
             734            1272     538.904E-03     515.118E-03
             730            1272     538.904E-03     515.118E-03
             732            1273     363.252E-03     351.325E-03
             736            1273     363.252E-03     351.325E-03
             731            1273     363.252E-03     351.325E-03
             737            1273     363.252E-03     351.325E-03
             737            1274     439.096E-03     419.792E-03
             732            1274     439.096E-03     419.792E-03
             738            1274     439.096E-03     419.792E-03
             733            1274     439.096E-03     419.792E-03
             734            1275     515.077E-03     506.709E-03
             739            1275     515.077E-03     506.709E-03
             733            1275     515.077E-03     506.709E-03
             738            1275     515.077E-03     506.709E-03
             734            1276     601.780E-03     599.521E-03
             740            1276     601.780E-03     599.521E-03
             735            1276     601.780E-03     599.521E-03
             739            1276     601.780E-03     599.521E-03
             737            1277     346.480E-03     355.134E-03
             736            1277     346.480E-03     355.134E-03
             741            1277     346.480E-03     355.134E-03
             742            1277     346.480E-03     355.134E-03
             743            1278     397.062E-03     444.116E-03
             738            1278     397.062E-03     444.116E-03
             737            1278     397.062E-03     444.116E-03
             742            1278     397.062E-03     444.116E-03
             738            1279     463.143E-03     561.611E-03
             743            1279     463.143E-03     561.611E-03
             744            1279     463.143E-03     561.611E-03
             739            1279     463.143E-03     561.611E-03
             739            1280     538.037E-03     631.768E-03
             744            1280     538.037E-03     631.768E-03
             740            1280     538.037E-03     631.768E-03
             745            1280     538.037E-03     631.768E-03
             742            1281     362.490E-03     359.409E-03
             746            1281     362.490E-03     359.409E-03
             741            1281     362.490E-03     359.409E-03
             747            1281     362.490E-03     359.409E-03
             742            1282     435.667E-03     436.971E-03
             748            1282     435.667E-03     436.971E-03
             747            1282     435.667E-03     436.971E-03
             743            1282     435.667E-03     436.971E-03
             749            1283     530.772E-03     534.062E-03
             748            1283     530.772E-03     534.062E-03
             744            1283     530.772E-03     534.062E-03
             743            1283     530.772E-03     534.062E-03
             749            1284     576.389E-03     561.687E-03
             744            1284     576.389E-03     561.687E-03
             750            1284     576.389E-03     561.687E-03
             745            1284     576.389E-03     561.687E-03
             752            1285     380.294E-03     375.086E-03
             747            1285     380.294E-03     375.086E-03
             746            1285     380.294E-03     375.086E-03
             751            1285     380.294E-03     375.086E-03
             748            1286     473.981E-03     470.463E-03
             752            1286     473.981E-03     470.463E-03
             753            1286     473.981E-03     470.463E-03
             747            1286     473.981E-03     470.463E-03
             754            1287     562.083E-03     565.351E-03
             748            1287     562.083E-03     565.351E-03
             753            1287     562.083E-03     565.351E-03
             749            1287     562.083E-03     565.351E-03
             755            1288     610.030E-03     613.279E-03
             749            1288     610.030E-03     613.279E-03
             750            1288     610.030E-03     613.279E-03
             754            1288     610.030E-03     613.279E-03
             751            1289     394.408E-03     391.277E-03
             757            1289     394.408E-03     391.277E-03
             752            1289     394.408E-03     391.277E-03
             756            1289     394.408E-03     391.277E-03
             753            1290     493.411E-03     493.664E-03
             758            1290     493.411E-03     493.664E-03
             752            1290     493.411E-03     493.664E-03
             757            1290     493.411E-03     493.664E-03
             759            1291     580.768E-03     591.263E-03
             754            1291     580.768E-03     591.263E-03
             753            1291     580.768E-03     591.263E-03
             758            1291     580.768E-03     591.263E-03
             754            1292     655.034E-03     663.362E-03
             755            1292     655.034E-03     663.362E-03
             760            1292     655.034E-03     663.362E-03
             759            1292     655.034E-03     663.362E-03
             756            1293     398.780E-03     410.102E-03
             762            1293     398.780E-03     410.102E-03
             757            1293     398.780E-03     410.102E-03
             761            1293     398.780E-03     410.102E-03
             758            1294     513.985E-03     533.580E-03
             762            1294     513.985E-03     533.580E-03
             763            1294     513.985E-03     533.580E-03
             757            1294     513.985E-03     533.580E-03
             758            1295     611.626E-03     658.806E-03
             759            1295     611.626E-03     658.806E-03
             763            1295     611.626E-03     658.806E-03
             764            1295     611.626E-03     658.806E-03
             760            1296     703.726E-03     751.724E-03
             764            1296     703.726E-03     751.724E-03
             765            1296     703.726E-03     751.724E-03
             759            1296     703.726E-03     751.724E-03
             766            1297     428.662E-03     420.066E-03
             762            1297     428.662E-03     420.066E-03
             767            1297     428.662E-03     420.066E-03
             761            1297     428.662E-03     420.066E-03
             768            1298     592.167E-03     553.097E-03
             763            1298     592.167E-03     553.097E-03
             767            1298     592.167E-03     553.097E-03
             762            1298     592.167E-03     553.097E-03
             769            1299     732.985E-03     700.646E-03
             768            1299     732.985E-03     700.646E-03
             763            1299     732.985E-03     700.646E-03
             764            1299     732.985E-03     700.646E-03
             769            1300     837.732E-03     815.974E-03
             765            1300     837.732E-03     815.974E-03
             764            1300     837.732E-03     815.974E-03
             770            1300     837.732E-03     815.974E-03
             767            1301     426.998E-03     409.907E-03
             772            1301     426.998E-03     409.907E-03
             771            1301     426.998E-03     409.907E-03
             766            1301     426.998E-03     409.907E-03
             772            1302     600.661E-03     573.228E-03
             767            1302     600.661E-03     573.228E-03
             768            1302     600.661E-03     573.228E-03
             773            1302     600.661E-03     573.228E-03
             769            1303     765.191E-03     752.466E-03
             773            1303     765.191E-03     752.466E-03
             768            1303     765.191E-03     752.466E-03
             774            1303     765.191E-03     752.466E-03
             770            1304     909.204E-03     900.251E-03
             775            1304     909.204E-03     900.251E-03
             774            1304     909.204E-03     900.251E-03
             769            1304     909.204E-03     900.251E-03
             772            1305     395.348E-03     414.813E-03
             777            1305     395.348E-03     414.813E-03
             771            1305     395.348E-03     414.813E-03
             776            1305     395.348E-03     414.813E-03
             772            1306     527.166E-03     607.143E-03
             778            1306     527.166E-03     607.143E-03
             773            1306     527.166E-03     607.143E-03
             777            1306     527.166E-03     607.143E-03
             779            1307     673.137E-03     827.746E-03
             774            1307     673.137E-03     827.746E-03
             773            1307     673.137E-03     827.746E-03
             778            1307     673.137E-03     827.746E-03
             780            1308     808.989E-03     952.390E-03
             779            1308     808.989E-03     952.390E-03
             774            1308     808.989E-03     952.390E-03
             775            1308     808.989E-03     952.390E-03
             776            1309     422.534E-03     417.229E-03
             781            1309     422.534E-03     417.229E-03
             782            1309     422.534E-03     417.229E-03
             777            1309     422.534E-03     417.229E-03
             783            1310     588.794E-03     585.159E-03
             782            1310     588.794E-03     585.159E-03
             778            1310     588.794E-03     585.159E-03
             777            1310     588.794E-03     585.159E-03
             783            1311     768.752E-03     769.522E-03
             779            1311     768.752E-03     769.522E-03
             778            1311     768.752E-03     769.522E-03
             784            1311     768.752E-03     769.522E-03
             780            1312     868.199E-03     848.550E-03
             779            1312     868.199E-03     848.550E-03
             785            1312     868.199E-03     848.550E-03
             784            1312     868.199E-03     848.550E-03
             786            1313     448.861E-03     438.893E-03
             782            1313     448.861E-03     438.893E-03
             787            1313     448.861E-03     438.893E-03
             781            1313     448.861E-03     438.893E-03
             788            1314     637.724E-03     624.238E-03
             783            1314     637.724E-03     624.238E-03
             782            1314     637.724E-03     624.238E-03
             787            1314     637.724E-03     624.238E-03
             783            1315     801.970E-03     798.286E-03
             789            1315     801.970E-03     798.286E-03
             784            1315     801.970E-03     798.286E-03
             788            1315     801.970E-03     798.286E-03
             790            1316     895.864E-03     895.485E-03
             789            1316     895.864E-03     895.485E-03
             785            1316     895.864E-03     895.485E-03
             784            1316     895.864E-03     895.485E-03
             792            1317     463.057E-03     460.523E-03
             786            1317     463.057E-03     460.523E-03
             791            1317     463.057E-03     460.523E-03
             787            1317     463.057E-03     460.523E-03
             788            1318     647.127E-03     650.849E-03
             787            1318     647.127E-03     650.849E-03
             792            1318     647.127E-03     650.849E-03
             793            1318     647.127E-03     650.849E-03
             788            1319     800.460E-03     823.048E-03
             794            1319     800.460E-03     823.048E-03
             793            1319     800.460E-03     823.048E-03
             789            1319     800.460E-03     823.048E-03
             789            1320     923.861E-03     944.018E-03
             794            1320     923.861E-03     944.018E-03
             795            1320     923.861E-03     944.018E-03
             790            1320     923.861E-03     944.018E-03
             791            1321     467.116E-03     482.470E-03
             797            1321     467.116E-03     482.470E-03
             796            1321     467.116E-03     482.470E-03
             792            1321     467.116E-03     482.470E-03
             792            1322     669.310E-03     693.282E-03
             797            1322     669.310E-03     693.282E-03
             793            1322     669.310E-03     693.282E-03
             798            1322     669.310E-03     693.282E-03
             798            1323     832.110E-03     892.007E-03
             799            1323     832.110E-03     892.007E-03
             794            1323     832.110E-03     892.007E-03
             793            1323     832.110E-03     892.007E-03
             799            1324     972.870E-03         1.03288
             795            1324     972.870E-03         1.03288
             794            1324     972.870E-03         1.03288
             800            1324     972.870E-03         1.03288
             796            1325     502.720E-03     491.763E-03
             801            1325     502.720E-03     491.763E-03
             797            1325     502.720E-03     491.763E-03
             802            1325     502.720E-03     491.763E-03
             798            1326     763.506E-03     713.168E-03
             797            1326     763.506E-03     713.168E-03
             802            1326     763.506E-03     713.168E-03
             803            1326     763.506E-03     713.168E-03
             804            1327     976.422E-03     936.765E-03
             799            1327     976.422E-03     936.765E-03
             803            1327     976.422E-03     936.765E-03
             798            1327     976.422E-03     936.765E-03
             805            1328         1.12510         1.09956
             804            1328         1.12510         1.09956
             799            1328         1.12510         1.09956
             800            1328         1.12510         1.09956
             802            1329     495.673E-03     474.618E-03
             801            1329     495.673E-03     474.618E-03
             806            1329     495.673E-03     474.618E-03
             807            1329     495.673E-03     474.618E-03
             802            1330     765.476E-03     731.422E-03
             803            1330     765.476E-03     731.422E-03
             808            1330     765.476E-03     731.422E-03
             807            1330     765.476E-03     731.422E-03
             809            1331         1.00895     993.150E-03
             808            1331         1.00895     993.150E-03
             803            1331         1.00895     993.150E-03
             804            1331         1.00895     993.150E-03
             804            1332         1.20346         1.18964
             810            1332         1.20346         1.18964
             809            1332         1.20346         1.18964
             805            1332         1.20346         1.18964
             811            1333     451.890E-03     484.173E-03
             812            1333     451.890E-03     484.173E-03
             806            1333     451.890E-03     484.173E-03
             807            1333     451.890E-03     484.173E-03
             812            1334     664.327E-03     776.644E-03
             813            1334     664.327E-03     776.644E-03
             807            1334     664.327E-03     776.644E-03
             808            1334     664.327E-03     776.644E-03
             808            1335     878.994E-03         1.08651
             809            1335     878.994E-03         1.08651
             813            1335     878.994E-03         1.08651
             814            1335     878.994E-03         1.08651
             815            1336         1.07286         1.26159
             809            1336         1.07286         1.26159
             810            1336         1.07286         1.26159
             814            1336         1.07286         1.26159
             817            1337     496.509E-03     490.624E-03
             812            1337     496.509E-03     490.624E-03
             816            1337     496.509E-03     490.624E-03
             811            1337     496.509E-03     490.624E-03
             817            1338     759.242E-03     745.233E-03
             818            1338     759.242E-03     745.233E-03
             812            1338     759.242E-03     745.233E-03
             813            1338     759.242E-03     745.233E-03
             814            1339         1.01276         1.01008
             819            1339         1.01276         1.01008
             818            1339         1.01276         1.01008
             813            1339         1.01276         1.01008
             819            1340         1.15536         1.14259
             815            1340         1.15536         1.14259
             814            1340         1.15536         1.14259
             820            1340         1.15536         1.14259
             821            1341     530.432E-03     510.280E-03
             817            1341     530.432E-03     510.280E-03
             822            1341     530.432E-03     510.280E-03
             816            1341     530.432E-03     510.280E-03
             817            1342     818.113E-03     775.097E-03
             818            1342     818.113E-03     775.097E-03
             822            1342     818.113E-03     775.097E-03
             823            1342     818.113E-03     775.097E-03
             819            1343         1.05925         1.01172
             823            1343         1.05925         1.01172
             824            1343         1.05925         1.01172
             818            1343         1.05925         1.01172
             819            1344         1.20272         1.15539
             824            1344         1.20272         1.15539
             820            1344         1.20272         1.15539
             825            1344         1.20272         1.15539
             821            1345     520.740E-03     553.604E-03
             822            1345     520.740E-03     553.604E-03
             826            1345     520.740E-03     553.604E-03
             827            1345     520.740E-03     553.604E-03
             823            1346     784.661E-03     852.961E-03
             828            1346     784.661E-03     852.961E-03
             827            1346     784.661E-03     852.961E-03
             822            1346     784.661E-03     852.961E-03
             823            1347     983.964E-03         1.11258
             829            1347     983.964E-03         1.11258
             828            1347     983.964E-03         1.11258
             824            1347     983.964E-03         1.11258
             824            1348         1.15368         1.27818
             830            1348         1.15368         1.27818
             825            1348         1.15368         1.27818
             829            1348         1.15368         1.27818
             826            1349     565.649E-03     553.059E-03
             832            1349     565.649E-03     553.059E-03
             831            1349     565.649E-03     553.059E-03
             827            1349     565.649E-03     553.059E-03
             827            1350     906.267E-03     839.259E-03
             832            1350     906.267E-03     839.259E-03
             833            1350     906.267E-03     839.259E-03
             828            1350     906.267E-03     839.259E-03
             829            1351         1.17880         1.10735
             828            1351         1.17880         1.10735
             833            1351         1.17880         1.10735
             834            1351         1.17880         1.10735
             829            1352         1.36081         1.30313
             834            1352         1.36081         1.30313
             835            1352         1.36081         1.30313
             830            1352         1.36081         1.30313
             831            1353     555.234E-03     532.339E-03
             832            1353     555.234E-03     532.339E-03
             837            1353     555.234E-03     532.339E-03
             836            1353     555.234E-03     532.339E-03
             837            1354     901.473E-03     861.323E-03
             838            1354     901.473E-03     861.323E-03
             833            1354     901.473E-03     861.323E-03
             832            1354     901.473E-03     861.323E-03
             838            1355         1.20138         1.18396
             839            1355         1.20138         1.18396
             834            1355         1.20138         1.18396
             833            1355         1.20138         1.18396
             840            1356         1.43119         1.42123
             835            1356         1.43119         1.42123
             839            1356         1.43119         1.42123
             834            1356         1.43119         1.42123
            1618            2006     355.514E-06     356.304E-06
            1623            2006     355.514E-06     356.304E-06
            1624            2006     355.514E-06     356.304E-06
            1619            2006     355.514E-06     356.304E-06
            1620            2007     309.194E-06     306.703E-06
            1619            2007     309.194E-06     306.703E-06
            1624            2007     309.194E-06     306.703E-06
            1625            2007     309.194E-06     306.703E-06
            1621            2008     323.403E-06     313.472E-06
            1625            2008     323.403E-06     313.472E-06
            1626            2008     323.403E-06     313.472E-06
            1620            2008     323.403E-06     313.472E-06
            1626            2009     340.317E-06     330.435E-06
            1621            2009     340.317E-06     330.435E-06
            1627            2009     340.317E-06     330.435E-06
            1622            2009     340.317E-06     330.435E-06
            1623            2010     278.376E-06     265.088E-06
            1628            2010     278.376E-06     265.088E-06
            1629            2010     278.376E-06     265.088E-06
            1624            2010     278.376E-06     265.088E-06
            1624            2011     277.145E-06     258.109E-06
            1630            2011     277.145E-06     258.109E-06
            1625            2011     277.145E-06     258.109E-06
            1629            2011     277.145E-06     258.109E-06
            1630            2012     309.763E-06     294.481E-06
            1631            2012     309.763E-06     294.481E-06
            1625            2012     309.763E-06     294.481E-06
            1626            2012     309.763E-06     294.481E-06
            1631            2013     336.654E-06     330.811E-06
            1632            2013     336.654E-06     330.811E-06
            1627            2013     336.654E-06     330.811E-06
            1626            2013     336.654E-06     330.811E-06
            1628            2014     168.109E-06     183.638E-06
            1633            2014     168.109E-06     183.638E-06
            1634            2014     168.109E-06     183.638E-06
            1629            2014     168.109E-06     183.638E-06
            1629            2015     203.454E-06     216.928E-06
            1635            2015     203.454E-06     216.928E-06
            1630            2015     203.454E-06     216.928E-06
            1634            2015     203.454E-06     216.928E-06
            1635            2016     274.166E-06     282.384E-06
            1636            2016     274.166E-06     282.384E-06
            1630            2016     274.166E-06     282.384E-06
            1631            2016     274.166E-06     282.384E-06
            1636            2017     323.061E-06     324.742E-06
            1637            2017     323.061E-06     324.742E-06
            1632            2017     323.061E-06     324.742E-06
            1631            2017     323.061E-06     324.742E-06
            1634            2018     121.942E-06     107.240E-06
            1638            2018     121.942E-06     107.240E-06
            1633            2018     121.942E-06     107.240E-06
            1639            2018     121.942E-06     107.240E-06
            1640            2019     179.501E-06     173.225E-06
            1634            2019     179.501E-06     173.225E-06
            1635            2019     179.501E-06     173.225E-06
            1639            2019     179.501E-06     173.225E-06
            1635            2020     265.593E-06     264.713E-06
            1640            2020     265.593E-06     264.713E-06
            1636            2020     265.593E-06     264.713E-06
            1641            2020     265.593E-06     264.713E-06
            1642            2021     323.963E-06     319.155E-06
            1636            2021     323.963E-06     319.155E-06
            1637            2021     323.963E-06     319.155E-06
            1641            2021     323.963E-06     319.155E-06
            1643            2022     96.1412E-06     119.650E-06
            1639            2022     96.1412E-06     119.650E-06
            1644            2022     96.1412E-06     119.650E-06
            1638            2022     96.1412E-06     119.650E-06
            1639            2023     162.097E-06     170.795E-06
            1645            2023     162.097E-06     170.795E-06
            1640            2023     162.097E-06     170.795E-06
            1644            2023     162.097E-06     170.795E-06
            1640            2024     256.476E-06     257.073E-06
            1641            2024     256.476E-06     257.073E-06
            1645            2024     256.476E-06     257.073E-06
            1646            2024     256.476E-06     257.073E-06
            1641            2025     321.553E-06     315.907E-06
            1647            2025     321.553E-06     315.907E-06
            1646            2025     321.553E-06     315.907E-06
            1642            2025     321.553E-06     315.907E-06
            1654            2026         1.29871         1.36905
            1648            2026         1.29871         1.36905
            1653            2026         1.29871         1.36905
            1649            2026         1.29871         1.36905
            1650            2027         1.10143         1.18208
            1654            2027         1.10143         1.18208
            1649            2027         1.10143         1.18208
            1655            2027         1.10143         1.18208
            1655            2028     813.361E-03     862.460E-03
            1651            2028     813.361E-03     862.460E-03
            1656            2028     813.361E-03     862.460E-03
            1650            2028     813.361E-03     862.460E-03
            1652            2029     491.175E-03     513.839E-03
            1657            2029     491.175E-03     513.839E-03
            1651            2029     491.175E-03     513.839E-03
            1656            2029     491.175E-03     513.839E-03
            1653            2030         1.39510         1.43663
            1654            2030         1.39510         1.43663
            1659            2030         1.39510         1.43663
            1658            2030         1.39510         1.43663
            1659            2031         1.20908         1.25881
            1660            2031         1.20908         1.25881
            1654            2031         1.20908         1.25881
            1655            2031         1.20908         1.25881
            1655            2032     905.816E-03     925.788E-03
            1656            2032     905.816E-03     925.788E-03
            1661            2032     905.816E-03     925.788E-03
            1660            2032     905.816E-03     925.788E-03
            1661            2033     545.206E-03     564.630E-03
            1656            2033     545.206E-03     564.630E-03
            1662            2033     545.206E-03     564.630E-03
            1657            2033     545.206E-03     564.630E-03
            1663            2034         1.56345         1.46111
            1658            2034         1.56345         1.46111
            1659            2034         1.56345         1.46111
            1664            2034         1.56345         1.46111
            1659            2035         1.37890         1.26941
            1660            2035         1.37890         1.26941
            1664            2035         1.37890         1.26941
            1665            2035         1.37890         1.26941
            1660            2036         1.04052     953.437E-03
            1661            2036         1.04052     953.437E-03
            1666            2036         1.04052     953.437E-03
            1665            2036         1.04052     953.437E-03
            1662            2037     601.054E-03     579.189E-03
            1661            2037     601.054E-03     579.189E-03
            1666            2037     601.054E-03     579.189E-03
            1667            2037     601.054E-03     579.189E-03
            1668            2038         1.55465         1.58580
            1664            2038         1.55465         1.58580
            1669            2038         1.55465         1.58580
            1663            2038         1.55465         1.58580
            1669            2039         1.30419         1.32688
            1670            2039         1.30419         1.32688
            1664            2039         1.30419         1.32688
            1665            2039         1.30419         1.32688
            1666            2040     974.014E-03     967.481E-03
            1670            2040     974.014E-03     967.481E-03
            1665            2040     974.014E-03     967.481E-03
            1671            2040     974.014E-03     967.481E-03
            1667            2041     572.070E-03     564.995E-03
            1666            2041     572.070E-03     564.995E-03
            1671            2041     572.070E-03     564.995E-03
            1672            2041     572.070E-03     564.995E-03
            1833            2162     868.285E-03     870.263E-03
            1838            2162     868.285E-03     870.263E-03
            1834            2162     868.285E-03     870.263E-03
            1839            2162     868.285E-03     870.263E-03
            1839            2163         1.06697         1.07921
            1834            2163         1.06697         1.07921
            1840            2163         1.06697         1.07921
            1835            2163         1.06697         1.07921
            1840            2164         1.27557         1.29634
            1835            2164         1.27557         1.29634
            1836            2164         1.27557         1.29634
            1841            2164         1.27557         1.29634
            1841            2165         1.41953         1.44571
            1842            2165         1.41953         1.44571
            1837            2165         1.41953         1.44571
            1836            2165         1.41953         1.44571
            1843            2166     893.241E-03     894.491E-03
            1839            2166     893.241E-03     894.491E-03
            1844            2166     893.241E-03     894.491E-03
            1838            2166     893.241E-03     894.491E-03
            1840            2167         1.03093         1.06470
            1845            2167         1.03093         1.06470
            1844            2167         1.03093         1.06470
            1839            2167         1.03093         1.06470
            1841            2168         1.17764         1.26062
            1845            2168         1.17764         1.26062
            1840            2168         1.17764         1.26062
            1846            2168         1.17764         1.26062
            1846            2169         1.31993         1.41443
            1847            2169         1.31993         1.41443
            1842            2169         1.31993         1.41443
            1841            2169         1.31993         1.41443
            1849            2170     856.963E-03     835.721E-03
            1848            2170     856.963E-03     835.721E-03
            1844            2170     856.963E-03     835.721E-03
            1843            2170     856.963E-03     835.721E-03
            1850            2171         1.02515     992.584E-03
            1849            2171         1.02515     992.584E-03
            1844            2171         1.02515     992.584E-03
            1845            2171         1.02515     992.584E-03
            1850            2172         1.18572         1.16114
            1845            2172         1.18572         1.16114
            1846            2172         1.18572         1.16114
            1851            2172         1.18572         1.16114
            1851            2173         1.33243         1.32513
            1852            2173         1.33243         1.32513
            1846            2173         1.33243         1.32513
            1847            2173         1.33243         1.32513
            1849            2174     842.424E-03     829.746E-03
            1853            2174     842.424E-03     829.746E-03
            1854            2174     842.424E-03     829.746E-03
            1848            2174     842.424E-03     829.746E-03
            1849            2175     989.019E-03     935.666E-03
            1855            2175     989.019E-03     935.666E-03
            1854            2175     989.019E-03     935.666E-03
            1850            2175     989.019E-03     935.666E-03
            1851            2176         1.14566         1.07011
            1850            2176         1.14566         1.07011
            1856            2176         1.14566         1.07011
            1855            2176         1.14566         1.07011
            1851            2177         1.20525         1.10911
            1856            2177         1.20525         1.10911
            1857            2177         1.20525         1.10911
            1852            2177         1.20525         1.10911
            1858            2178     97.9406E-03     105.004E-03
            1863            2178     97.9406E-03     105.004E-03
            1859            2178     97.9406E-03     105.004E-03
            1864            2178     97.9406E-03     105.004E-03
            1860            2179     158.384E-03     159.536E-03
            1864            2179     158.384E-03     159.536E-03
            1859            2179     158.384E-03     159.536E-03
            1865            2179     158.384E-03     159.536E-03
            1865            2180     209.195E-03     209.469E-03
            1866            2180     209.195E-03     209.469E-03
            1860            2180     209.195E-03     209.469E-03
            1861            2180     209.195E-03     209.469E-03
            1867            2181     246.392E-03     244.980E-03
            1866            2181     246.392E-03     244.980E-03
            1862            2181     246.392E-03     244.980E-03
            1861            2181     246.392E-03     244.980E-03
            1868            2182     95.9064E-03     109.393E-03
            1869            2182     95.9064E-03     109.393E-03
            1863            2182     95.9064E-03     109.393E-03
            1864            2182     95.9064E-03     109.393E-03
            1870            2183     182.408E-03     189.003E-03
            1864            2183     182.408E-03     189.003E-03
            1869            2183     182.408E-03     189.003E-03
            1865            2183     182.408E-03     189.003E-03
            1865            2184     250.410E-03     254.102E-03
            1870            2184     250.410E-03     254.102E-03
            1866            2184     250.410E-03     254.102E-03
            1871            2184     250.410E-03     254.102E-03
            1867            2185     303.317E-03     299.946E-03
            1871            2185     303.317E-03     299.946E-03
            1872            2185     303.317E-03     299.946E-03
            1866            2185     303.317E-03     299.946E-03
            1869            2186     113.878E-03     118.014E-03
            1874            2186     113.878E-03     118.014E-03
            1868            2186     113.878E-03     118.014E-03
            1873            2186     113.878E-03     118.014E-03
            1870            2187     193.198E-03     198.667E-03
            1875            2187     193.198E-03     198.667E-03
            1874            2187     193.198E-03     198.667E-03
            1869            2187     193.198E-03     198.667E-03
            1876            2188     259.185E-03     264.104E-03
            1870            2188     259.185E-03     264.104E-03
            1871            2188     259.185E-03     264.104E-03
            1875            2188     259.185E-03     264.104E-03
            1877            2189     305.225E-03     304.119E-03
            1871            2189     305.225E-03     304.119E-03
            1876            2189     305.225E-03     304.119E-03
            1872            2189     305.225E-03     304.119E-03
            1874            2190     173.421E-03     160.627E-03
            1873            2190     173.421E-03     160.627E-03
            1879            2190     173.421E-03     160.627E-03
            1878            2190     173.421E-03     160.627E-03
            1879            2191     220.519E-03     212.510E-03
            1875            2191     220.519E-03     212.510E-03
            1880            2191     220.519E-03     212.510E-03
            1874            2191     220.519E-03     212.510E-03
            1881            2192     273.504E-03     272.020E-03
            1880            2192     273.504E-03     272.020E-03
            1875            2192     273.504E-03     272.020E-03
            1876            2192     273.504E-03     272.020E-03
            1882            2193     308.546E-03     307.422E-03
            1877            2193     308.546E-03     307.422E-03
            1876            2193     308.546E-03     307.422E-03
            1881            2193     308.546E-03     307.422E-03
            1883            2194     218.058E-03     241.875E-03
            1879            2194     218.058E-03     241.875E-03
            1884            2194     218.058E-03     241.875E-03
            1878            2194     218.058E-03     241.875E-03
            1879            2195     242.075E-03     262.079E-03
            1880            2195     242.075E-03     262.079E-03
            1884            2195     242.075E-03     262.079E-03
            1885            2195     242.075E-03     262.079E-03
            1886            2196     283.378E-03     292.569E-03
            1885            2196     283.378E-03     292.569E-03
            1880            2196     283.378E-03     292.569E-03
            1881            2196     283.378E-03     292.569E-03
            1887            2197     310.725E-03     314.387E-03
            1882            2197     310.725E-03     314.387E-03
            1881            2197     310.725E-03     314.387E-03
            1886            2197     310.725E-03     314.387E-03
            1884            2198     315.101E-03     300.232E-03
            1883            2198     315.101E-03     300.232E-03
            1888            2198     315.101E-03     300.232E-03
            1889            2198     315.101E-03     300.232E-03
            1890            2199     310.707E-03     293.807E-03
            1889            2199     310.707E-03     293.807E-03
            1884            2199     310.707E-03     293.807E-03
            1885            2199     310.707E-03     293.807E-03
            1891            2200     319.341E-03     304.233E-03
            1885            2200     319.341E-03     304.233E-03
            1886            2200     319.341E-03     304.233E-03
            1890            2200     319.341E-03     304.233E-03
            1887            2201     324.328E-03     320.206E-03
            1886            2201     324.328E-03     320.206E-03
            1891            2201     324.328E-03     320.206E-03
            1892            2201     324.328E-03     320.206E-03
            1889            2202     373.739E-03     373.911E-03
            1893            2202     373.739E-03     373.911E-03
            1888            2202     373.739E-03     373.911E-03
            1894            2202     373.739E-03     373.911E-03
            1889            2203     337.256E-03     333.014E-03
            1894            2203     337.256E-03     333.014E-03
            1895            2203     337.256E-03     333.014E-03
            1890            2203     337.256E-03     333.014E-03
            1890            2204     331.695E-03     320.239E-03
            1896            2204     331.695E-03     320.239E-03
            1891            2204     331.695E-03     320.239E-03
            1895            2204     331.695E-03     320.239E-03
            1897            2205     327.678E-03     318.843E-03
            1896            2205     327.678E-03     318.843E-03
            1892            2205     327.678E-03     318.843E-03
            1891            2205     327.678E-03     318.843E-03
            1899            2206     325.871E-03     377.873E-03
            1894            2206     325.871E-03     377.873E-03
            1893            2206     325.871E-03     377.873E-03
            1898            2206     325.871E-03     377.873E-03
            1900            2207     307.209E-03     361.177E-03
            1894            2207     307.209E-03     361.177E-03
            1899            2207     307.209E-03     361.177E-03
            1895            2207     307.209E-03     361.177E-03
            1896            2208     308.973E-03     332.420E-03
            1895            2208     308.973E-03     332.420E-03
            1901            2208     308.973E-03     332.420E-03
            1900            2208     308.973E-03     332.420E-03
            1901            2209     317.937E-03     319.803E-03
            1896            2209     317.937E-03     319.803E-03
            1897            2209     317.937E-03     319.803E-03
            1902            2209     317.937E-03     319.803E-03
            1904            2210     334.843E-03     330.178E-03
            1903            2210     334.843E-03     330.178E-03
            1898            2210     334.843E-03     330.178E-03
            1899            2210     334.843E-03     330.178E-03
            1904            2211     346.066E-03     350.122E-03
            1900            2211     346.066E-03     350.122E-03
            1899            2211     346.066E-03     350.122E-03
            1905            2211     346.066E-03     350.122E-03
            1906            2212     330.454E-03     331.624E-03
            1900            2212     330.454E-03     331.624E-03
            1905            2212     330.454E-03     331.624E-03
            1901            2212     330.454E-03     331.624E-03
            1902            2213     325.708E-03     324.096E-03
            1901            2213     325.708E-03     324.096E-03
            1906            2213     325.708E-03     324.096E-03
            1907            2213     325.708E-03     324.096E-03
            1903            2214     386.263E-03     372.838E-03
            1904            2214     386.263E-03     372.838E-03
            1908            2214     386.263E-03     372.838E-03
            1909            2214     386.263E-03     372.838E-03
            1904            2215     379.300E-03     371.640E-03
            1909            2215     379.300E-03     371.640E-03
            1910            2215     379.300E-03     371.640E-03
            1905            2215     379.300E-03     371.640E-03
            1910            2216     358.310E-03     352.811E-03
            1911            2216     358.310E-03     352.811E-03
            1906            2216     358.310E-03     352.811E-03
            1905            2216     358.310E-03     352.811E-03
            1912            2217     336.738E-03     331.489E-03
            1906            2217     336.738E-03     331.489E-03
            1907            2217     336.738E-03     331.489E-03
            1911            2217     336.738E-03     331.489E-03
            1914            2218     418.549E-03     460.611E-03
            1913            2218     418.549E-03     460.611E-03
            1909            2218     418.549E-03     460.611E-03
            1908            2218     418.549E-03     460.611E-03
            1915            2219     388.764E-03     431.334E-03
            1910            2219     388.764E-03     431.334E-03
            1914            2219     388.764E-03     431.334E-03
            1909            2219     388.764E-03     431.334E-03
            1916            2220     368.375E-03     389.990E-03
            1910            2220     368.375E-03     389.990E-03
            1915            2220     368.375E-03     389.990E-03
            1911            2220     368.375E-03     389.990E-03
            1911            2221     339.905E-03     348.285E-03
            1917            2221     339.905E-03     348.285E-03
            1916            2221     339.905E-03     348.285E-03
            1912            2221     339.905E-03     348.285E-03
            1914            2222     540.807E-03     516.903E-03
            1919            2222     540.807E-03     516.903E-03
            1918            2222     540.807E-03     516.903E-03
            1913            2222     540.807E-03     516.903E-03
            1920            2223     489.514E-03     458.893E-03
            1915            2223     489.514E-03     458.893E-03
            1914            2223     489.514E-03     458.893E-03
            1919            2223     489.514E-03     458.893E-03
            1920            2224     428.412E-03     401.323E-03
            1916            2224     428.412E-03     401.323E-03
            1915            2224     428.412E-03     401.323E-03
            1921            2224     428.412E-03     401.323E-03
            1916            2225     361.767E-03     356.624E-03
            1921            2225     361.767E-03     356.624E-03
            1922            2225     361.767E-03     356.624E-03
            1917            2225     361.767E-03     356.624E-03
            1919            2226     603.699E-03     601.380E-03
            1923            2226     603.699E-03     601.380E-03
            1924            2226     603.699E-03     601.380E-03
            1918            2226     603.699E-03     601.380E-03
            1919            2227     516.982E-03     508.555E-03
            1920            2227     516.982E-03     508.555E-03
            1925            2227     516.982E-03     508.555E-03
            1924            2227     516.982E-03     508.555E-03
            1920            2228     440.754E-03     421.399E-03
            1921            2228     440.754E-03     421.399E-03
            1926            2228     440.754E-03     421.399E-03
            1925            2228     440.754E-03     421.399E-03
            1921            2229     364.282E-03     352.334E-03
            1922            2229     364.282E-03     352.334E-03
            1927            2229     364.282E-03     352.334E-03
            1926            2229     364.282E-03     352.334E-03
            1924            2230     539.748E-03     633.771E-03
            1928            2230     539.748E-03     633.771E-03
            1923            2230     539.748E-03     633.771E-03
            1929            2230     539.748E-03     633.771E-03
            1929            2231     464.755E-03     563.585E-03
            1924            2231     464.755E-03     563.585E-03
            1930            2231     464.755E-03     563.585E-03
            1925            2231     464.755E-03     563.585E-03
            1931            2232     398.442E-03     445.818E-03
            1925            2232     398.442E-03     445.818E-03
            1926            2232     398.442E-03     445.818E-03
            1930            2232     398.442E-03     445.818E-03
            1932            2233     347.304E-03     356.174E-03
            1927            2233     347.304E-03     356.174E-03
            1931            2233     347.304E-03     356.174E-03
            1926            2233     347.304E-03     356.174E-03
            1929            2234     578.293E-03     563.523E-03
            1934            2234     578.293E-03     563.523E-03
            1933            2234     578.293E-03     563.523E-03
            1928            2234     578.293E-03     563.523E-03
            1930            2235     532.687E-03     535.881E-03
            1935            2235     532.687E-03     535.881E-03
            1929            2235     532.687E-03     535.881E-03
            1934            2235     532.687E-03     535.881E-03
            1936            2236     437.399E-03     438.563E-03
            1935            2236     437.399E-03     438.563E-03
            1930            2236     437.399E-03     438.563E-03
            1931            2236     437.399E-03     438.563E-03
            1937            2237     363.574E-03     360.388E-03
            1936            2237     363.574E-03     360.388E-03
            1932            2237     363.574E-03     360.388E-03
            1931            2237     363.574E-03     360.388E-03
            1939            2238     611.922E-03     615.109E-03
            1938            2238     611.922E-03     615.109E-03
            1933            2238     611.922E-03     615.109E-03
            1934            2238     611.922E-03     615.109E-03
            1935            2239     564.070E-03     567.235E-03
            1934            2239     564.070E-03     567.235E-03
            1940            2239     564.070E-03     567.235E-03
            1939            2239     564.070E-03     567.235E-03
            1936            2240     475.856E-03     472.208E-03
            1940            2240     475.856E-03     472.208E-03
            1941            2240     475.856E-03     472.208E-03
            1935            2240     475.856E-03     472.208E-03
            1942            2241     381.522E-03     376.259E-03
            1937            2241     381.522E-03     376.259E-03
            1936            2241     381.522E-03     376.259E-03
            1941            2241     381.522E-03     376.259E-03
            1938            2242     656.813E-03     665.190E-03
            1943            2242     656.813E-03     665.190E-03
            1944            2242     656.813E-03     665.190E-03
            1939            2242     656.813E-03     665.190E-03
            1945            2243     582.617E-03     593.177E-03
            1940            2243     582.617E-03     593.177E-03
            1944            2243     582.617E-03     593.177E-03
            1939            2243     582.617E-03     593.177E-03
            1940            2244     495.181E-03     495.468E-03
            1941            2244     495.181E-03     495.468E-03
            1946            2244     495.181E-03     495.468E-03
            1945            2244     495.181E-03     495.468E-03
            1941            2245     395.619E-03     392.533E-03
            1942            2245     395.619E-03     392.533E-03
            1946            2245     395.619E-03     392.533E-03
            1947            2245     395.619E-03     392.533E-03
            1949            2246     705.515E-03     753.559E-03
            1944            2246     705.515E-03     753.559E-03
            1948            2246     705.515E-03     753.559E-03
            1943            2246     705.515E-03     753.559E-03
            1950            2247     613.497E-03     660.748E-03
            1949            2247     613.497E-03     660.748E-03
            1945            2247     613.497E-03     660.748E-03
            1944            2247     613.497E-03     660.748E-03
            1945            2248     515.784E-03     535.434E-03
            1951            2248     515.784E-03     535.434E-03
            1950            2248     515.784E-03     535.434E-03
            1946            2248     515.784E-03     535.434E-03
            1947            2249     400.043E-03     411.433E-03
            1946            2249     400.043E-03     411.433E-03
            1952            2249     400.043E-03     411.433E-03
            1951            2249     400.043E-03     411.433E-03
            1948            2250     839.651E-03     817.825E-03
            1949            2250     839.651E-03     817.825E-03
            1954            2250     839.651E-03     817.825E-03
            1953            2250     839.651E-03     817.825E-03
            1950            2251     735.024E-03     702.593E-03
            1949            2251     735.024E-03     702.593E-03
            1955            2251     735.024E-03     702.593E-03
            1954            2251     735.024E-03     702.593E-03
            1950            2252     594.122E-03     554.944E-03
            1956            2252     594.122E-03     554.944E-03
            1951            2252     594.122E-03     554.944E-03
            1955            2252     594.122E-03     554.944E-03
            1956            2253     430.055E-03     421.375E-03
            1951            2253     430.055E-03     421.375E-03
            1957            2253     430.055E-03     421.375E-03
            1952            2253     430.055E-03     421.375E-03
            1958            2254     911.156E-03     902.132E-03
            1954            2254     911.156E-03     902.132E-03
            1953            2254     911.156E-03     902.132E-03
            1959            2254     911.156E-03     902.132E-03
            1960            2255     767.182E-03     754.399E-03
            1955            2255     767.182E-03     754.399E-03
            1959            2255     767.182E-03     754.399E-03
            1954            2255     767.182E-03     754.399E-03
            1961            2256     602.532E-03     575.050E-03
            1955            2256     602.532E-03     575.050E-03
            1956            2256     602.532E-03     575.050E-03
            1960            2256     602.532E-03     575.050E-03
            1961            2257     428.309E-03     411.184E-03
            1957            2257     428.309E-03     411.184E-03
            1956            2257     428.309E-03     411.184E-03
            1962            2257     428.309E-03     411.184E-03
            1959            2258     810.731E-03     954.426E-03
            1963            2258     810.731E-03     954.426E-03
            1964            2258     810.731E-03     954.426E-03
            1958            2258     810.731E-03     954.426E-03
            1959            2259     674.839E-03     829.801E-03
            1960            2259     674.839E-03     829.801E-03
            1965            2259     674.839E-03     829.801E-03
            1964            2259     674.839E-03     829.801E-03
            1960            2260     528.753E-03     609.053E-03
            1965            2260     528.753E-03     609.053E-03
            1961            2260     528.753E-03     609.053E-03
            1966            2260     528.753E-03     609.053E-03
            1962            2261     396.418E-03     416.133E-03
            1961            2261     396.418E-03     416.133E-03
            1967            2261     396.418E-03     416.133E-03
            1966            2261     396.418E-03     416.133E-03
            1963            2262     870.127E-03     850.410E-03
            1968            2262     870.127E-03     850.410E-03
            1969            2262     870.127E-03     850.410E-03
            1964            2262     870.127E-03     850.410E-03
            1969            2263     770.740E-03     771.420E-03
            1970            2263     770.740E-03     771.420E-03
            1964            2263     770.740E-03     771.420E-03
            1965            2263     770.740E-03     771.420E-03
            1966            2264     590.720E-03     586.951E-03
            1971            2264     590.720E-03     586.951E-03
            1970            2264     590.720E-03     586.951E-03
            1965            2264     590.720E-03     586.951E-03
            1967            2265     423.887E-03     418.469E-03
            1972            2265     423.887E-03     418.469E-03
            1966            2265     423.887E-03     418.469E-03
            1971            2265     423.887E-03     418.469E-03
            1973            2266     897.772E-03     897.330E-03
            1969            2266     897.772E-03     897.330E-03
            1968            2266     897.772E-03     897.330E-03
            1974            2266     897.772E-03     897.330E-03
            1974            2267     804.019E-03     800.235E-03
            1969            2267     804.019E-03     800.235E-03
            1970            2267     804.019E-03     800.235E-03
            1975            2267     804.019E-03     800.235E-03
            1976            2268     639.771E-03     626.153E-03
            1970            2268     639.771E-03     626.153E-03
            1971            2268     639.771E-03     626.153E-03
            1975            2268     639.771E-03     626.153E-03
            1977            2269     450.352E-03     440.323E-03
            1971            2269     450.352E-03     440.323E-03
            1976            2269     450.352E-03     440.323E-03
            1972            2269     450.352E-03     440.323E-03
            1973            2270     925.651E-03     945.855E-03
            1978            2270     925.651E-03     945.855E-03
            1979            2270     925.651E-03     945.855E-03
            1974            2270     925.651E-03     945.855E-03
            1974            2271     802.362E-03     825.016E-03
            1980            2271     802.362E-03     825.016E-03
            1979            2271     802.362E-03     825.016E-03
            1975            2271     802.362E-03     825.016E-03
            1980            2272     649.041E-03     652.803E-03
            1976            2272     649.041E-03     652.803E-03
            1975            2272     649.041E-03     652.803E-03
            1981            2272     649.041E-03     652.803E-03
            1981            2273     464.494E-03     462.026E-03
            1976            2273     464.494E-03     462.026E-03
            1982            2273     464.494E-03     462.026E-03
            1977            2273     464.494E-03     462.026E-03
            1978            2274     974.666E-03         1.03472
            1983            2274     974.666E-03         1.03472
            1979            2274     974.666E-03         1.03472
            1984            2274     974.666E-03         1.03472
            1984            2275     834.025E-03     893.989E-03
            1979            2275     834.025E-03     893.989E-03
            1985            2275     834.025E-03     893.989E-03
            1980            2275     834.025E-03     893.989E-03
            1985            2276     671.236E-03     695.261E-03
            1986            2276     671.236E-03     695.261E-03
            1980            2276     671.236E-03     695.261E-03
            1981            2276     671.236E-03     695.261E-03
            1981            2277     468.600E-03     484.020E-03
            1982            2277     468.600E-03     484.020E-03
            1987            2277     468.600E-03     484.020E-03
            1986            2277     468.600E-03     484.020E-03
            1984            2278         1.12702         1.10142
            1989            2278         1.12702         1.10142
            1988            2278         1.12702         1.10142
            1983            2278         1.12702         1.10142
            1989            2279     978.493E-03     938.746E-03
            1990            2279     978.493E-03     938.746E-03
            1985            2279     978.493E-03     938.746E-03
            1984            2279     978.493E-03     938.746E-03
            1991            2280     765.568E-03     715.126E-03
            1985            2280     765.568E-03     715.126E-03
            1986            2280     765.568E-03     715.126E-03
            1990            2280     765.568E-03     715.126E-03
            1987            2281     504.321E-03     493.269E-03
            1991            2281     504.321E-03     493.269E-03
            1992            2281     504.321E-03     493.269E-03
            1986            2281     504.321E-03     493.269E-03
            1988            2282         1.20542         1.19152
            1989            2282         1.20542         1.19152
            1994            2282         1.20542         1.19152
            1993            2282         1.20542         1.19152
            1990            2283         1.01097     995.110E-03
            1994            2283         1.01097     995.110E-03
            1989            2283         1.01097     995.110E-03
            1995            2283         1.01097     995.110E-03
            1991            2284     767.444E-03     733.336E-03
            1995            2284     767.444E-03     733.336E-03
            1996            2284     767.444E-03     733.336E-03
            1990            2284     767.444E-03     733.336E-03
            1992            2285     497.173E-03     476.078E-03
            1996            2285     497.173E-03     476.078E-03
            1991            2285     497.173E-03     476.078E-03
            1997            2285     497.173E-03     476.078E-03
            1998            2286         1.07460         1.26362
            1994            2286         1.07460         1.26362
            1999            2286         1.07460         1.26362
            1993            2286         1.07460         1.26362
            1995            2287     880.719E-03         1.08859
            1999            2287     880.719E-03         1.08859
            2000            2287     880.719E-03         1.08859
            1994            2287     880.719E-03         1.08859
            1996            2288     666.013E-03     778.652E-03
            2000            2288     666.013E-03     778.652E-03
            1995            2288     666.013E-03     778.652E-03
            2001            2288     666.013E-03     778.652E-03
            2002            2289     453.130E-03     485.690E-03
            2001            2289     453.130E-03     485.690E-03
            1996            2289     453.130E-03     485.690E-03
            1997            2289     453.130E-03     485.690E-03
            2003            2290         1.15728         1.14446
            2004            2290         1.15728         1.14446
            1998            2290         1.15728         1.14446
            1999            2290         1.15728         1.14446
            1999            2291         1.01477         1.01201
            2004            2291         1.01477         1.01201
            2005            2291         1.01477         1.01201
            2000            2291         1.01477         1.01201
            2000            2292     761.262E-03     747.127E-03
            2001            2292     761.262E-03     747.127E-03
            2006            2292     761.262E-03     747.127E-03
            2005            2292     761.262E-03     747.127E-03
            2007            2293     498.063E-03     492.059E-03
            2006            2293     498.063E-03     492.059E-03
            2002            2293     498.063E-03     492.059E-03
            2001            2293     498.063E-03     492.059E-03
            2008            2294         1.20464         1.15719
            2009            2294         1.20464         1.15719
            2003            2294         1.20464         1.15719
            2004            2294         1.20464         1.15719
            2005            2295         1.06132         1.01365
            2010            2295         1.06132         1.01365
            2009            2295         1.06132         1.01365
            2004            2295         1.06132         1.01365
            2006            2296     820.236E-03     777.063E-03
            2011            2296     820.236E-03     777.063E-03
            2005            2296     820.236E-03     777.063E-03
            2010            2296     820.236E-03     777.063E-03
            2006            2297     532.107E-03     511.867E-03
            2011            2297     532.107E-03     511.867E-03
            2012            2297     532.107E-03     511.867E-03
            2007            2297     532.107E-03     511.867E-03
            2014            2298         1.15541         1.28007
            2013            2298         1.15541         1.28007
            2008            2298         1.15541         1.28007
            2009            2298         1.15541         1.28007
            2015            2299     985.814E-03         1.11465
            2014            2299     985.814E-03         1.11465
            2010            2299     985.814E-03         1.11465
            2009            2299     985.814E-03         1.11465
            2015            2300     786.569E-03     855.068E-03
            2011            2300     786.569E-03     855.068E-03
            2010            2300     786.569E-03     855.068E-03
            2016            2300     786.569E-03     855.068E-03
            2011            2301     522.265E-03     555.349E-03
            2016            2301     522.265E-03     555.349E-03
            2012            2301     522.265E-03     555.349E-03
            2017            2301     522.265E-03     555.349E-03
            2013            2302         1.36274         1.30494
            2018            2302         1.36274         1.30494
            2014            2302         1.36274         1.30494
            2019            2302         1.36274         1.30494
            2019            2303         1.18089         1.10930
            2015            2303         1.18089         1.10930
            2014            2303         1.18089         1.10930
            2020            2303         1.18089         1.10930
            2016            2304     908.386E-03     841.227E-03
            2015            2304     908.386E-03     841.227E-03
            2021            2304     908.386E-03     841.227E-03
            2020            2304     908.386E-03     841.227E-03
            2021            2305     567.388E-03     554.663E-03
            2016            2305     567.388E-03     554.663E-03
            2017            2305     567.388E-03     554.663E-03
            2022            2305     567.388E-03     554.663E-03
            2018            2306         1.43313         1.42310
            2019            2306         1.43313         1.42310
            2024            2306         1.43313         1.42310
            2023            2306         1.43313         1.42310
            2024            2307         1.20340         1.18593
            2020            2307         1.20340         1.18593
            2025            2307         1.20340         1.18593
            2019            2307         1.20340         1.18593
            2020            2308     903.489E-03     863.278E-03
            2026            2308     903.489E-03     863.278E-03
            2021            2308     903.489E-03     863.278E-03
            2025            2308     903.489E-03     863.278E-03
            2021            2309     556.865E-03     533.933E-03
            2026            2309     556.865E-03     533.933E-03
            2027            2309     556.865E-03     533.933E-03
            2022            2309     556.865E-03     533.933E-03
            2151            2384         1.40964         1.43561
            2146            2384         1.40964         1.43561
            2150            2384         1.40964         1.43561
            2145            2384         1.40964         1.43561
            2146            2385         1.26849         1.28877
            2151            2385         1.26849         1.28877
            2147            2385         1.26849         1.28877
            2152            2385         1.26849         1.28877
            2147            2386         1.06117         1.07254
            2148            2386         1.06117         1.07254
            2153            2386         1.06117         1.07254
            2152            2386         1.06117         1.07254
            2153            2387     864.837E-03     865.840E-03
            2154            2387     864.837E-03     865.840E-03
            2149            2387     864.837E-03     865.840E-03
            2148            2387     864.837E-03     865.840E-03
            2150            2388         1.31026         1.40471
            2156            2388         1.31026         1.40471
            2155            2388         1.31026         1.40471
            2151            2388         1.31026         1.40471
            2157            2389         1.17447         1.25527
            2151            2389         1.17447         1.25527
            2152            2389         1.17447         1.25527
            2156            2389         1.17447         1.25527
            2158            2390         1.03024         1.06162
            2153            2390         1.03024         1.06162
            2152            2390         1.03024         1.06162
            2157            2390         1.03024         1.06162
            2159            2391     893.082E-03     892.891E-03
            2154            2391     893.082E-03     892.891E-03
            2158            2391     893.082E-03     892.891E-03
            2153            2391     893.082E-03     892.891E-03
            2161            2392         1.32330         1.31660
            2155            2392         1.32330         1.31660
            2156            2392         1.32330         1.31660
            2160            2392         1.32330         1.31660
            2162            2393         1.18301         1.15738
            2157            2393         1.18301         1.15738
            2161            2393         1.18301         1.15738
            2156            2393         1.18301         1.15738
            2163            2394         1.02455     990.417E-03
            2162            2394         1.02455     990.417E-03
            2158            2394         1.02455     990.417E-03
            2157            2394         1.02455     990.417E-03
            2159            2395     856.898E-03     834.437E-03
            2164            2395     856.898E-03     834.437E-03
            2163            2395     856.898E-03     834.437E-03
            2158            2395     856.898E-03     834.437E-03
            2160            2396         1.20296         1.10721
            2161            2396         1.20296         1.10721
            2166            2396         1.20296         1.10721
            2165            2396         1.20296         1.10721
            2162            2397         1.14531         1.07271
            2161            2397         1.14531         1.07271
            2166            2397         1.14531         1.07271
            2167            2397         1.14531         1.07271
            2162            2398     989.708E-03     939.570E-03
            2163            2398     989.708E-03     939.570E-03
            2167            2398     989.708E-03     939.570E-03
            2168            2398     989.708E-03     939.570E-03
            2164            2399     843.605E-03     832.692E-03
            2168            2399     843.605E-03     832.692E-03
            2169            2399     843.605E-03     832.692E-03
            2163            2399     843.605E-03     832.692E-03
            2171            2400     797.941E-03     778.783E-03
            2170            2400     797.941E-03     778.783E-03
            2176            2400     797.941E-03     778.783E-03
            2175            2400     797.941E-03     778.783E-03
            2172            2401     869.593E-03     845.157E-03
            2171            2401     869.593E-03     845.157E-03
            2176            2401     869.593E-03     845.157E-03
            2177            2401     869.593E-03     845.157E-03
            2172            2402     937.861E-03     921.707E-03
            2178            2402     937.861E-03     921.707E-03
            2173            2402     937.861E-03     921.707E-03
            2177            2402     937.861E-03     921.707E-03
            2179            2403         1.01922         1.02014
            2174            2403         1.01922         1.02014
            2173            2403         1.01922         1.02014
            2178            2403         1.01922         1.02014
            2180            2404     790.193E-03     777.323E-03
            2175            2404     790.193E-03     777.323E-03
            2181            2404     790.193E-03     777.323E-03
            2176            2404     790.193E-03     777.323E-03
            2182            2405     845.883E-03     799.013E-03
            2181            2405     845.883E-03     799.013E-03
            2176            2405     845.883E-03     799.013E-03
            2177            2405     845.883E-03     799.013E-03
            2178            2406     916.334E-03     843.323E-03
            2183            2406     916.334E-03     843.323E-03
            2182            2406     916.334E-03     843.323E-03
            2177            2406     916.334E-03     843.323E-03
            2179            2407     915.430E-03     818.722E-03
            2183            2407     915.430E-03     818.722E-03
            2178            2407     915.430E-03     818.722E-03
            2184            2407     915.430E-03     818.722E-03
            2181            2408     759.604E-03     776.028E-03
            2185            2408     759.604E-03     776.028E-03
            2186            2408     759.604E-03     776.028E-03
            2180            2408     759.604E-03     776.028E-03
            2187            2409     751.237E-03     816.326E-03
            2182            2409     751.237E-03     816.326E-03
            2181            2409     751.237E-03     816.326E-03
            2186            2409     751.237E-03     816.326E-03
            2188            2410     740.731E-03     890.283E-03
            2182            2410     740.731E-03     890.283E-03
            2187            2410     740.731E-03     890.283E-03
            2183            2410     740.731E-03     890.283E-03
            2189            2411     780.423E-03     933.485E-03
            2183            2411     780.423E-03     933.485E-03
            2184            2411     780.423E-03     933.485E-03
            2188            2411     780.423E-03     933.485E-03
            2190            2412     795.750E-03     774.732E-03
            2185            2412     795.750E-03     774.732E-03
            2191            2412     795.750E-03     774.732E-03
            2186            2412     795.750E-03     774.732E-03
            2187            2413     797.489E-03     770.885E-03
            2191            2413     797.489E-03     770.885E-03
            2186            2413     797.489E-03     770.885E-03
            2192            2413     797.489E-03     770.885E-03
            2193            2414     803.978E-03     794.980E-03
            2188            2414     803.978E-03     794.980E-03
            2192            2414     803.978E-03     794.980E-03
            2187            2414     803.978E-03     794.980E-03
            2188            2415     892.391E-03     893.719E-03
            2189            2415     892.391E-03     893.719E-03
            2193            2415     892.391E-03     893.719E-03
            2194            2415     892.391E-03     893.719E-03
            2190            2416     788.188E-03     777.581E-03
            2195            2416     788.188E-03     777.581E-03
            2196            2416     788.188E-03     777.581E-03
            2191            2416     788.188E-03     777.581E-03
            2196            2417     769.258E-03     731.413E-03
            2192            2417     769.258E-03     731.413E-03
            2197            2417     769.258E-03     731.413E-03
            2191            2417     769.258E-03     731.413E-03
            2197            2418     743.105E-03     699.267E-03
            2192            2418     743.105E-03     699.267E-03
            2198            2418     743.105E-03     699.267E-03
            2193            2418     743.105E-03     699.267E-03
            2199            2419     753.562E-03     714.773E-03
            2193            2419     753.562E-03     714.773E-03
            2194            2419     753.562E-03     714.773E-03
            2198            2419     753.562E-03     714.773E-03
            2195            2420     754.917E-03     763.923E-03
            2201            2420     754.917E-03     763.923E-03
            2200            2420     754.917E-03     763.923E-03
            2196            2420     754.917E-03     763.923E-03
            2197            2421     682.044E-03     704.636E-03
            2202            2421     682.044E-03     704.636E-03
            2196            2421     682.044E-03     704.636E-03
            2201            2421     682.044E-03     704.636E-03
            2202            2422     576.466E-03     625.083E-03
            2203            2422     576.466E-03     625.083E-03
            2197            2422     576.466E-03     625.083E-03
            2198            2422     576.466E-03     625.083E-03
            2203            2423     517.385E-03     575.374E-03
            2198            2423     517.385E-03     575.374E-03
            2204            2423     517.385E-03     575.374E-03
            2199            2423     517.385E-03     575.374E-03
            2200            2424     749.671E-03     747.046E-03
            2205            2424     749.671E-03     747.046E-03
            2206            2424     749.671E-03     747.046E-03
            2201            2424     749.671E-03     747.046E-03
            2207            2425     658.052E-03     655.237E-03
            2201            2425     658.052E-03     655.237E-03
            2206            2425     658.052E-03     655.237E-03
            2202            2425     658.052E-03     655.237E-03
            2203            2426     523.837E-03     505.160E-03
            2208            2426     523.837E-03     505.160E-03
            2202            2426     523.837E-03     505.160E-03
            2207            2426     523.837E-03     505.160E-03
            2209            2427     408.740E-03     377.978E-03
            2204            2427     408.740E-03     377.978E-03
            2208            2427     408.740E-03     377.978E-03
            2203            2427     408.740E-03     377.978E-03
            2205            2428     742.552E-03     739.440E-03
            2211            2428     742.552E-03     739.440E-03
            2206            2428     742.552E-03     739.440E-03
            2210            2428     742.552E-03     739.440E-03
            2211            2429     624.955E-03     636.218E-03
            2206            2429     624.955E-03     636.218E-03
            2212            2429     624.955E-03     636.218E-03
            2207            2429     624.955E-03     636.218E-03
            2213            2430     459.220E-03     471.607E-03
            2212            2430     459.220E-03     471.607E-03
            2207            2430     459.220E-03     471.607E-03
            2208            2430     459.220E-03     471.607E-03
            2208            2431     263.105E-03     274.570E-03
            2209            2431     263.105E-03     274.570E-03
            2214            2431     263.105E-03     274.570E-03
            2213            2431     263.105E-03     274.570E-03
            2216            2432     738.178E-03     730.314E-03
            2210            2432     738.178E-03     730.314E-03
            2211            2432     738.178E-03     730.314E-03
            2215            2432     738.178E-03     730.314E-03
            2212            2433     604.506E-03     613.528E-03
            2211            2433     604.506E-03     613.528E-03
            2216            2433     604.506E-03     613.528E-03
            2217            2433     604.506E-03     613.528E-03
            2218            2434     433.409E-03     449.957E-03
            2217            2434     433.409E-03     449.957E-03
            2212            2434     433.409E-03     449.957E-03
            2213            2434     433.409E-03     449.957E-03
            2213            2435     219.806E-03     258.486E-03
            2218            2435     219.806E-03     258.486E-03
            2219            2435     219.806E-03     258.486E-03
            2214            2435     219.806E-03     258.486E-03
            2220            2436     599.781E-03     596.763E-03
            2221            2436     599.781E-03     596.763E-03
            2216            2436     599.781E-03     596.763E-03
            2215            2436     599.781E-03     596.763E-03
            2217            2437     505.126E-03     506.057E-03
            2221            2437     505.126E-03     506.057E-03
            2216            2437     505.126E-03     506.057E-03
            2222            2437     505.126E-03     506.057E-03
            2222            2438     376.994E-03     380.110E-03
            2223            2438     376.994E-03     380.110E-03
            2218            2438     376.994E-03     380.110E-03
            2217            2438     376.994E-03     380.110E-03
            2219            2439     227.959E-03     248.439E-03
            2224            2439     227.959E-03     248.439E-03
            2223            2439     227.959E-03     248.439E-03
            2218            2439     227.959E-03     248.439E-03
            2727            2828     484.285E-03     501.811E-03
            2722            2828     484.285E-03     501.811E-03
            2721            2828     484.285E-03     501.811E-03
            2726            2828     484.285E-03     501.811E-03
            2728            2829     808.002E-03     850.686E-03
            2727            2829     808.002E-03     850.686E-03
            2723            2829     808.002E-03     850.686E-03
            2722            2829     808.002E-03     850.686E-03
            2728            2830         1.09686         1.17318
            2723            2830         1.09686         1.17318
            2729            2830         1.09686         1.17318
            2724            2830         1.09686         1.17318
            2724            2831         1.29290         1.36337
            2725            2831         1.29290         1.36337
            2730            2831         1.29290         1.36337
            2729            2831         1.29290         1.36337
            2726            2832     539.407E-03     559.868E-03
            2727            2832     539.407E-03     559.868E-03
            2732            2832     539.407E-03     559.868E-03
            2731            2832     539.407E-03     559.868E-03
            2732            2833     903.553E-03     922.117E-03
            2728            2833     903.553E-03     922.117E-03
            2733            2833     903.553E-03     922.117E-03
            2727            2833     903.553E-03     922.117E-03
            2734            2834         1.20897         1.25742
            2733            2834         1.20897         1.25742
            2728            2834         1.20897         1.25742
            2729            2834         1.20897         1.25742
            2729            2835         1.39166         1.43730
            2734            2835         1.39166         1.43730
            2730            2835         1.39166         1.43730
            2735            2835         1.39166         1.43730
            2731            2836     610.248E-03     586.908E-03
            2737            2836     610.248E-03     586.908E-03
            2732            2836     610.248E-03     586.908E-03
            2736            2836     610.248E-03     586.908E-03
            2732            2837         1.05280     963.078E-03
            2738            2837         1.05280     963.078E-03
            2737            2837         1.05280     963.078E-03
            2733            2837         1.05280     963.078E-03
            2734            2838         1.39282         1.28093
            2738            2838         1.39282         1.28093
            2739            2838         1.39282         1.28093
            2733            2838         1.39282         1.28093
            2734            2839         1.57977         1.47680
            2739            2839         1.57977         1.47680
            2740            2839         1.57977         1.47680
            2735            2839         1.57977         1.47680
            2737            2840     590.571E-03     586.153E-03
            2741            2840     590.571E-03     586.153E-03
            2736            2840     590.571E-03     586.153E-03
            2742            2840     590.571E-03     586.153E-03
            2743            2841     993.868E-03     990.493E-03
            2737            2841     993.868E-03     990.493E-03
            2738            2841     993.868E-03     990.493E-03
            2742            2841     993.868E-03     990.493E-03
            2743            2842         1.32631         1.35154
            2744            2842         1.32631         1.35154
            2738            2842         1.32631         1.35154
            2739            2842         1.32631         1.35154
            2744            2843         1.58688         1.61509
            2739            2843         1.58688         1.61509
            2740            2843         1.58688         1.61509
            2745            2843         1.58688         1.61509
            2764            2854         1.01766         1.01877
            2765            2854         1.01766         1.01877
            2769            2854         1.01766         1.01877
            2770            2854         1.01766         1.01877
            2771            2855     943.716E-03     926.315E-03
            2765            2855     943.716E-03     926.315E-03
            2770            2855     943.716E-03     926.315E-03
            2766            2855     943.716E-03     926.315E-03
            2772            2856     876.514E-03     850.530E-03
            2766            2856     876.514E-03     850.530E-03
            2767            2856     876.514E-03     850.530E-03
            2771            2856     876.514E-03     850.530E-03
            2772            2857     802.500E-03     782.277E-03
            2767            2857     802.500E-03     782.277E-03
            2768            2857     802.500E-03     782.277E-03
            2773            2857     802.500E-03     782.277E-03
            2769            2858     919.447E-03     823.021E-03
            2775            2858     919.447E-03     823.021E-03
            2770            2858     919.447E-03     823.021E-03
            2774            2858     919.447E-03     823.021E-03
            2776            2859     923.792E-03     853.272E-03
            2775            2859     923.792E-03     853.272E-03
            2771            2859     923.792E-03     853.272E-03
            2770            2859     923.792E-03     853.272E-03
            2771            2860     853.538E-03     809.120E-03
            2776            2860     853.538E-03     809.120E-03
            2772            2860     853.538E-03     809.120E-03
            2777            2860     853.538E-03     809.120E-03
            2773            2861     795.404E-03     783.725E-03
            2772            2861     795.404E-03     783.725E-03
            2778            2861     795.404E-03     783.725E-03
            2777            2861     795.404E-03     783.725E-03
            2774            2862     786.551E-03     938.011E-03
            2780            2862     786.551E-03     938.011E-03
            2775            2862     786.551E-03     938.011E-03
            2779            2862     786.551E-03     938.011E-03
            2775            2863     751.099E-03     897.939E-03
            2781            2863     751.099E-03     897.939E-03
            2780            2863     751.099E-03     897.939E-03
            2776            2863     751.099E-03     897.939E-03
            2781            2864     762.007E-03     824.620E-03
            2777            2864     762.007E-03     824.620E-03
            2782            2864     762.007E-03     824.620E-03
            2776            2864     762.007E-03     824.620E-03
            2782            2865     766.325E-03     781.488E-03
            2777            2865     766.325E-03     781.488E-03
            2783            2865     766.325E-03     781.488E-03
            2778            2865     766.325E-03     781.488E-03
            2785            2866     895.683E-03     897.355E-03
            2784            2866     895.683E-03     897.355E-03
            2779            2866     895.683E-03     897.355E-03
            2780            2866     895.683E-03     897.355E-03
            2785            2867     813.962E-03     804.103E-03
            2780            2867     813.962E-03     804.103E-03
            2781            2867     813.962E-03     804.103E-03
            2786            2867     813.962E-03     804.103E-03
            2787            2868     808.024E-03     780.286E-03
            2786            2868     808.024E-03     780.286E-03
            2781            2868     808.024E-03     780.286E-03
            2782            2868     808.024E-03     780.286E-03
            2782            2869     802.153E-03     780.519E-03
            2783            2869     802.153E-03     780.519E-03
            2787            2869     802.153E-03     780.519E-03
            2788            2869     802.153E-03     780.519E-03
            2789            2870     759.739E-03     720.737E-03
            2790            2870     759.739E-03     720.737E-03
            2785            2870     759.739E-03     720.737E-03
            2784            2870     759.739E-03     720.737E-03
            2786            2871     756.020E-03     712.846E-03
            2790            2871     756.020E-03     712.846E-03
            2791            2871     756.020E-03     712.846E-03
            2785            2871     756.020E-03     712.846E-03
            2787            2872     781.733E-03     744.884E-03
            2786            2872     781.733E-03     744.884E-03
            2792            2872     781.733E-03     744.884E-03
            2791            2872     781.733E-03     744.884E-03
            2788            2873     795.451E-03     785.477E-03
            2793            2873     795.451E-03     785.477E-03
            2787            2873     795.451E-03     785.477E-03
            2792            2873     795.451E-03     785.477E-03
            2794            2874     527.186E-03     584.081E-03
            2789            2874     527.186E-03     584.081E-03
            2790            2874     527.186E-03     584.081E-03
            2795            2874     527.186E-03     584.081E-03
            2796            2875     594.722E-03     641.491E-03
            2791            2875     594.722E-03     641.491E-03
            2795            2875     594.722E-03     641.491E-03
            2790            2875     594.722E-03     641.491E-03
            2791            2876     698.310E-03     719.782E-03
            2797            2876     698.310E-03     719.782E-03
            2796            2876     698.310E-03     719.782E-03
            2792            2876     698.310E-03     719.782E-03
            2792            2877     763.980E-03     772.591E-03
            2798            2877     763.980E-03     772.591E-03
            2793            2877     763.980E-03     772.591E-03
            2797            2877     763.980E-03     772.591E-03
            2795            2878     421.459E-03     390.662E-03
            2800            2878     421.459E-03     390.662E-03
            2799            2878     421.459E-03     390.662E-03
            2794            2878     421.459E-03     390.662E-03
            2800            2879     545.019E-03     526.815E-03
            2795            2879     545.019E-03     526.815E-03
            2801            2879     545.019E-03     526.815E-03
            2796            2879     545.019E-03     526.815E-03
            2797            2880     675.638E-03     673.019E-03
            2801            2880     675.638E-03     673.019E-03
            2802            2880     675.638E-03     673.019E-03
            2796            2880     675.638E-03     673.019E-03
            2803            2881     759.261E-03     756.782E-03
            2802            2881     759.261E-03     756.782E-03
            2797            2881     759.261E-03     756.782E-03
            2798            2881     759.261E-03     756.782E-03
            2800            2882     284.267E-03     291.599E-03
            2804            2882     284.267E-03     291.599E-03
            2805            2882     284.267E-03     291.599E-03
            2799            2882     284.267E-03     291.599E-03
            2801            2883     483.313E-03     496.117E-03
            2805            2883     483.313E-03     496.117E-03
            2806            2883     483.313E-03     496.117E-03
            2800            2883     483.313E-03     496.117E-03
            2807            2884     643.399E-03     654.802E-03
            2801            2884     643.399E-03     654.802E-03
            2806            2884     643.399E-03     654.802E-03
            2802            2884     643.399E-03     654.802E-03
            2808            2885     752.339E-03     749.350E-03
            2802            2885     752.339E-03     749.350E-03
            2803            2885     752.339E-03     749.350E-03
            2807            2885     752.339E-03     749.350E-03
            2810            2886     245.496E-03     276.163E-03
            2804            2886     245.496E-03     276.163E-03
            2809            2886     245.496E-03     276.163E-03
            2805            2886     245.496E-03     276.163E-03
            2811            2887     458.806E-03     474.045E-03
            2806            2887     458.806E-03     474.045E-03
            2805            2887     458.806E-03     474.045E-03
            2810            2887     458.806E-03     474.045E-03
            2812            2888     622.710E-03     630.803E-03
            2806            2888     622.710E-03     630.803E-03
            2807            2888     622.710E-03     630.803E-03
            2811            2888     622.710E-03     630.803E-03
            2812            2889     747.795E-03     739.326E-03
            2813            2889     747.795E-03     739.326E-03
            2808            2889     747.795E-03     739.326E-03
            2807            2889     747.795E-03     739.326E-03
            2814            2890     250.857E-03     267.330E-03
            2815            2890     250.857E-03     267.330E-03
            2810            2890     250.857E-03     267.330E-03
            2809            2890     250.857E-03     267.330E-03
            2816            2891     398.664E-03     400.872E-03
            2810            2891     398.664E-03     400.872E-03
            2811            2891     398.664E-03     400.872E-03
            2815            2891     398.664E-03     400.872E-03
            2816            2892     520.502E-03     520.754E-03
            2817            2892     520.502E-03     520.754E-03
            2811            2892     520.502E-03     520.754E-03
            2812            2892     520.502E-03     520.754E-03
            2817            2893     607.913E-03     604.386E-03
            2813            2893     607.913E-03     604.386E-03
            2818            2893     607.913E-03     604.386E-03
            2812            2893     607.913E-03     604.386E-03
            2858            2912     353.377E-06     354.350E-06
            2853            2912     353.377E-06     354.350E-06
            2852            2912     353.377E-06     354.350E-06
            2857            2912     353.377E-06     354.350E-06
            2854            2913     307.499E-06     305.165E-06
            2853            2913     307.499E-06     305.165E-06
            2858            2913     307.499E-06     305.165E-06
            2859            2913     307.499E-06     305.165E-06
            2854            2914     322.513E-06     312.684E-06
            2860            2914     322.513E-06     312.684E-06
            2859            2914     322.513E-06     312.684E-06
            2855            2914     322.513E-06     312.684E-06
            2856            2915     339.957E-06     330.107E-06
            2860            2915     339.957E-06     330.107E-06
            2861            2915     339.957E-06     330.107E-06
            2855            2915     339.957E-06     330.107E-06
            2858            2916     277.191E-06     263.530E-06
            2863            2916     277.191E-06     263.530E-06
            2862            2916     277.191E-06     263.530E-06
            2857            2916     277.191E-06     263.530E-06
            2858            2917     276.255E-06     256.909E-06
            2864            2917     276.255E-06     256.909E-06
            2863            2917     276.255E-06     256.909E-06
            2859            2917     276.255E-06     256.909E-06
            2859            2918     309.256E-06     293.904E-06
            2860            2918     309.256E-06     293.904E-06
            2865            2918     309.256E-06     293.904E-06
            2864            2918     309.256E-06     293.904E-06
            2865            2919     336.417E-06     330.534E-06
            2866            2919     336.417E-06     330.534E-06
            2861            2919     336.417E-06     330.534E-06
            2860            2919     336.417E-06     330.534E-06
            2863            2920     167.354E-06     182.845E-06
            2862            2920     167.354E-06     182.845E-06
            2868            2920     167.354E-06     182.845E-06
            2867            2920     167.354E-06     182.845E-06
            2863            2921     203.026E-06     216.414E-06
            2864            2921     203.026E-06     216.414E-06
            2868            2921     203.026E-06     216.414E-06
            2869            2921     203.026E-06     216.414E-06
            2865            2922     273.948E-06     282.121E-06
            2870            2922     273.948E-06     282.121E-06
            2869            2922     273.948E-06     282.121E-06
            2864            2922     273.948E-06     282.121E-06
            2871            2923     322.925E-06     324.580E-06
            2870            2923     322.925E-06     324.580E-06
            2865            2923     322.925E-06     324.580E-06
            2866            2923     322.925E-06     324.580E-06
            2868            2924     121.635E-06     107.131E-06
            2867            2924     121.635E-06     107.131E-06
            2873            2924     121.635E-06     107.131E-06
            2872            2924     121.635E-06     107.131E-06
            2873            2925     179.248E-06     173.227E-06
            2868            2925     179.248E-06     173.227E-06
            2869            2925     179.248E-06     173.227E-06
            2874            2925     179.248E-06     173.227E-06
            2875            2926     265.472E-06     264.647E-06
            2870            2926     265.472E-06     264.647E-06
            2874            2926     265.472E-06     264.647E-06
            2869            2926     265.472E-06     264.647E-06
            2870            2927     323.845E-06     319.038E-06
            2876            2927     323.845E-06     319.038E-06
            2871            2927     323.845E-06     319.038E-06
            2875            2927     323.845E-06     319.038E-06
            2877            2928     96.2244E-06     119.610E-06
            2873            2928     96.2244E-06     119.610E-06
            2878            2928     96.2244E-06     119.610E-06
            2872            2928     96.2244E-06     119.610E-06
            2873            2929     162.156E-06     170.716E-06
            2874            2929     162.156E-06     170.716E-06
            2879            2929     162.156E-06     170.716E-06
            2878            2929     162.156E-06     170.716E-06
            2879            2930     256.526E-06     257.008E-06
            2880            2930     256.526E-06     257.008E-06
            2874            2930     256.526E-06     257.008E-06
            2875            2930     256.526E-06     257.008E-06
            2876            2931     321.485E-06     315.823E-06
            2881            2931     321.485E-06     315.823E-06
            2880            2931     321.485E-06     315.823E-06
            2875            2931     321.485E-06     315.823E-06
            3192            3177     339.957E-06     330.107E-06
            3187            3177     339.957E-06     330.107E-06
            3188            3177     339.957E-06     330.107E-06
            3193            3177     339.957E-06     330.107E-06
            3193            3178     322.513E-06     312.684E-06
            3189            3178     322.513E-06     312.684E-06
            3188            3178     322.513E-06     312.684E-06
            3194            3178     322.513E-06     312.684E-06
            3194            3179     307.499E-06     305.165E-06
            3190            3179     307.499E-06     305.165E-06
            3195            3179     307.499E-06     305.165E-06
            3189            3179     307.499E-06     305.165E-06
            3195            3180     353.377E-06     354.350E-06
            3196            3180     353.377E-06     354.350E-06
            3190            3180     353.377E-06     354.350E-06
            3191            3180     353.377E-06     354.350E-06
            3198            3181     336.417E-06     330.534E-06
            3193            3181     336.417E-06     330.534E-06
            3197            3181     336.417E-06     330.534E-06
            3192            3181     336.417E-06     330.534E-06
            3194            3182     309.256E-06     293.904E-06
            3198            3182     309.256E-06     293.904E-06
            3193            3182     309.256E-06     293.904E-06
            3199            3182     309.256E-06     293.904E-06
            3199            3183     276.255E-06     256.909E-06
            3194            3183     276.255E-06     256.909E-06
            3200            3183     276.255E-06     256.909E-06
            3195            3183     276.255E-06     256.909E-06
            3200            3184     277.191E-06     263.530E-06
            3201            3184     277.191E-06     263.530E-06
            3195            3184     277.191E-06     263.530E-06
            3196            3184     277.191E-06     263.530E-06
            3203            3185     322.925E-06     324.580E-06
            3202            3185     322.925E-06     324.580E-06
            3197            3185     322.925E-06     324.580E-06
            3198            3185     322.925E-06     324.580E-06
            3199            3186     273.948E-06     282.121E-06
            3203            3186     273.948E-06     282.121E-06
            3204            3186     273.948E-06     282.121E-06
            3198            3186     273.948E-06     282.121E-06
            3204            3187     203.026E-06     216.414E-06
            3199            3187     203.026E-06     216.414E-06
            3200            3187     203.026E-06     216.414E-06
            3205            3187     203.026E-06     216.414E-06
            3205            3188     167.354E-06     182.845E-06
            3200            3188     167.354E-06     182.845E-06
            3201            3188     167.354E-06     182.845E-06
            3206            3188     167.354E-06     182.845E-06
            3203            3189     323.845E-06     319.038E-06
            3208            3189     323.845E-06     319.038E-06
            3202            3189     323.845E-06     319.038E-06
            3207            3189     323.845E-06     319.038E-06
            3203            3190     265.472E-06     264.647E-06
            3204            3190     265.472E-06     264.647E-06
            3208            3190     265.472E-06     264.647E-06
            3209            3190     265.472E-06     264.647E-06
            3205            3191     179.248E-06     173.227E-06
            3209            3191     179.248E-06     173.227E-06
            3210            3191     179.248E-06     173.227E-06
            3204            3191     179.248E-06     173.227E-06
            3210            3192     121.635E-06     107.131E-06
            3206            3192     121.635E-06     107.131E-06
            3205            3192     121.635E-06     107.131E-06
            3211            3192     121.635E-06     107.131E-06
            3213            3193     321.485E-06     315.823E-06
            3212            3193     321.485E-06     315.823E-06
            3207            3193     321.485E-06     315.823E-06
            3208            3193     321.485E-06     315.823E-06
            3214            3194     256.526E-06     257.008E-06
            3208            3194     256.526E-06     257.008E-06
            3213            3194     256.526E-06     257.008E-06
            3209            3194     256.526E-06     257.008E-06
            3214            3195     162.156E-06     170.716E-06
            3209            3195     162.156E-06     170.716E-06
            3210            3195     162.156E-06     170.716E-06
            3215            3195     162.156E-06     170.716E-06
            3215            3196     96.2244E-06     119.610E-06
            3210            3196     96.2244E-06     119.610E-06
            3211            3196     96.2244E-06     119.610E-06
            3216            3196     96.2244E-06     119.610E-06


  Minimum                            80.5978E-06     97.4709E-06
      At Element                            1643            3211
            Node                             151             597

  Maximum                                1.71335         1.78799
      At Element                            2745            2745
            Node                             389              20

           Total                     1.46968E+03     1.49063E+03


Field Output reported at element nodes for region: CRJ700-1.Region_2
   Computation algorithm: EXTRAPOLATE_COMPUTE_AVERAGE
   Averaged at nodes
   Averaging regions: ODB_REGIONS

   Element Label      Node Label         S.Mises         S.Mises
                                          @Loc 1          @Loc 2
-----------------------------------------------------------------
            2030               2     81.0938E-03     80.4891E-03
             841               2     81.0938E-03     80.4891E-03
             981               3         1.26884         1.22085
            2129               3         1.26884         1.22085
             963               5     81.0107E-03     80.4061E-03
             859               5     81.0107E-03     80.4061E-03
             978               6     309.340E-06     312.898E-06
             856               9     309.340E-06     312.898E-06
            2225              11         1.26829         1.22033
             958              11         1.26829         1.22033
             861              13     80.5662E-03     79.9689E-03
            2028              13     80.5662E-03     79.9689E-03
             843              13     80.5662E-03     79.9689E-03
             961              13     80.5662E-03     79.9689E-03
             976              14     408.271E-06     406.589E-06
             858              14     408.271E-06     406.589E-06
            2227              15     297.434E-03     299.005E-03
             960              15     297.434E-03     299.005E-03
            2127              15     297.434E-03     299.005E-03
             979              15     297.434E-03     299.005E-03
            2839              16         1.54740         1.50813
             993              16         1.54740         1.50813
             991              17     499.356E-03     499.903E-03
            2239              17     499.356E-03     499.903E-03
            2837              17     499.356E-03     499.903E-03
            2132              17     499.356E-03     499.903E-03
            2130              20         1.56583         1.51317
            2237              20         1.56583         1.51317
            2242              21         1.08483         1.04418
            2851              21         1.08483         1.04418
            2882              23         1.08805         1.04761
            2142              23         1.08805         1.04761
            2849              25     812.464E-03     812.922E-03
            2884              25     812.464E-03     812.922E-03
            2144              25     812.464E-03     812.922E-03
            2240              25     812.464E-03     812.922E-03
            2746              26     198.184E-03     196.712E-03
            2912              26     198.184E-03     196.712E-03
            2272              28     198.720E-03     197.248E-03
            2821              28     198.720E-03     197.248E-03
            2914              29     197.407E-03     195.938E-03
            2819              29     197.407E-03     195.938E-03
            2748              29     197.407E-03     195.938E-03
            2270              29     197.407E-03     195.938E-03
            2836              31     309.294E-06     312.815E-06
            2763              33     408.326E-06     406.682E-06
            2834              33     408.326E-06     406.682E-06
            2761              34     309.294E-06     312.815E-06
            2033              51     195.421E-03     195.646E-03
            2030              51     195.421E-03     195.646E-03
            2036              52     223.408E-03     228.856E-03
            2033              52     223.408E-03     228.856E-03
            2036              53     222.369E-03     228.895E-03
            2039              53     222.369E-03     228.895E-03
            2039              54     249.397E-03     250.812E-03
            2042              54     249.397E-03     250.812E-03
            2042              55     288.734E-03     287.911E-03
            2045              55     288.734E-03     287.911E-03
            2048              56     341.583E-03     340.424E-03
            2045              56     341.583E-03     340.424E-03
            2051              57     418.600E-03     410.324E-03
            2048              57     418.600E-03     410.324E-03
            2054              58     374.403E-03     355.584E-03
            2051              58     374.403E-03     355.584E-03
            2057              59     326.892E-03     325.477E-03
            2054              59     326.892E-03     325.477E-03
            2057              60     396.751E-03     407.030E-03
            2060              60     396.751E-03     407.030E-03
            2060              61     456.048E-03     456.103E-03
            2063              61     456.048E-03     456.103E-03
            2063              62     522.993E-03     523.754E-03
            2066              62     522.993E-03     523.754E-03
            2069              63     607.284E-03     591.453E-03
            2066              63     607.284E-03     591.453E-03
            2069              64     554.114E-03     511.399E-03
            2072              64     554.114E-03     511.399E-03
            2075              65     503.417E-03     491.698E-03
            2072              65     503.417E-03     491.698E-03
            2075              66     586.593E-03     598.982E-03
            2078              66     586.593E-03     598.982E-03
            2078              67     652.940E-03     650.945E-03
            2081              67     652.940E-03     650.945E-03
            2081              68     712.778E-03     708.209E-03
            2084              68     712.778E-03     708.209E-03
            2084              69     781.468E-03     780.520E-03
            2087              69     781.468E-03     780.520E-03
            2087              70     865.030E-03     839.973E-03
            2090              70     865.030E-03     839.973E-03
            2090              71     801.245E-03     734.137E-03
            2093              71     801.245E-03     734.137E-03
            2096              72     744.534E-03     723.308E-03
            2093              72     744.534E-03     723.308E-03
            2096              73     834.993E-03     848.976E-03
            2099              73     834.993E-03     848.976E-03
            2102              74     903.891E-03     900.180E-03
            2099              74     903.891E-03     900.180E-03
            2102              75     965.223E-03     958.948E-03
            2105              75     965.223E-03     958.948E-03
            2105              76         1.03538         1.03573
            2108              76         1.03538         1.03573
            2111              77         1.11793         1.08431
            2108              77         1.11793         1.08431
            2111              78         1.05141     965.064E-03
            2114              78         1.05141     965.064E-03
            2114              79         1.00170     974.500E-03
            2117              79         1.00170     974.500E-03
            2120              80         1.09881         1.11718
            2117              80         1.09881         1.11718
            2123              81         1.16571         1.16355
            2120              81         1.16571         1.16355
            2123              82         1.24039         1.24810
            2126              82         1.24039         1.24810
            2126              83         1.32370         1.28487
            2129              83         1.32370         1.28487
             966             147     444.376E-06     437.576E-06
             963             147     444.376E-06     437.576E-06
             969             148     354.209E-06     356.879E-06
             966             148     354.209E-06     356.879E-06
             972             149     299.433E-06     303.238E-06
             969             149     299.433E-06     303.238E-06
             972             150     275.277E-06     283.074E-06
             975             150     275.277E-06     283.074E-06
             975             151     289.690E-06     296.401E-06
             978             151     289.690E-06     296.401E-06
             841             176     444.376E-06     437.576E-06
             844             176     444.376E-06     437.576E-06
             847             177     354.209E-06     356.879E-06
             844             177     354.209E-06     356.879E-06
             847             178     299.433E-06     303.238E-06
             850             178     299.433E-06     303.238E-06
             853             179     275.277E-06     283.074E-06
             850             179     275.277E-06     283.074E-06
             856             180     289.690E-06     296.401E-06
             853             180     289.690E-06     296.401E-06
             859             194     195.747E-03     196.001E-03
             862             194     195.747E-03     196.001E-03
             865             195     223.784E-03     229.214E-03
             862             195     223.784E-03     229.214E-03
             865             196     221.957E-03     228.446E-03
             868             196     221.957E-03     228.446E-03
             868             197     248.487E-03     249.910E-03
             871             197     248.487E-03     249.910E-03
             871             198     287.544E-03     286.736E-03
             874             198     287.544E-03     286.736E-03
             874             199     340.170E-03     339.024E-03
             877             199     340.170E-03     339.024E-03
             877             200     416.987E-03     408.764E-03
             880             200     416.987E-03     408.764E-03
             883             201     373.060E-03     354.394E-03
             880             201     373.060E-03     354.394E-03
             886             202     325.734E-03     324.410E-03
             883             202     325.734E-03     324.410E-03
             886             203     395.339E-03     405.618E-03
             889             203     395.339E-03     405.618E-03
             892             204     454.534E-03     454.600E-03
             889             204     454.534E-03     454.600E-03
             892             205     521.383E-03     522.138E-03
             895             205     521.383E-03     522.138E-03
             895             206     605.558E-03     589.769E-03
             898             206     605.558E-03     589.769E-03
             898             207     552.479E-03     509.896E-03
             901             207     552.479E-03     509.896E-03
             901             208     501.895E-03     490.249E-03
             904             208     501.895E-03     490.249E-03
             904             209     585.009E-03     597.403E-03
             907             209     585.009E-03     597.403E-03
             910             210     651.313E-03     649.330E-03
             907             210     651.313E-03     649.330E-03
             913             211     711.125E-03     706.566E-03
             910             211     711.125E-03     706.566E-03
             913             212     779.774E-03     778.827E-03
             916             212     779.774E-03     778.827E-03
             916             213     863.255E-03     838.245E-03
             919             213     863.255E-03     838.245E-03
             919             214     799.505E-03     732.523E-03
             922             214     799.505E-03     732.523E-03
             925             215     742.882E-03     721.717E-03
             922             215     742.882E-03     721.717E-03
             928             216     833.338E-03     847.326E-03
             925             216     833.338E-03     847.326E-03
             931             217     902.219E-03     898.519E-03
             928             217     902.219E-03     898.519E-03
             934             218     963.537E-03     957.271E-03
             931             218     963.537E-03     957.271E-03
             934             219         1.03367         1.03401
             937             219         1.03367         1.03401
             937             220         1.11614         1.08257
             940             220         1.11614         1.08257
             943             221         1.04965     963.416E-03
             940             221         1.04965     963.416E-03
             946             222         1.00001     972.862E-03
             943             222         1.00001     972.862E-03
             946             223         1.09713         1.11550
             949             223         1.09713         1.11550
             949             224         1.16404         1.16188
             952             224         1.16404         1.16188
             955             225         1.23868         1.24638
             952             225         1.23868         1.24638
             958             226         1.32192         1.28312
             955             226         1.32192         1.28312
             842             264     80.9193E-03     80.3188E-03
            2030             264     80.9193E-03     80.3188E-03
             841             264     80.9193E-03     80.3188E-03
            2029             264     80.9193E-03     80.3188E-03
             843             265     80.6597E-03     80.0629E-03
            2029             265     80.6597E-03     80.0629E-03
            2028             265     80.6597E-03     80.0629E-03
             842             265     80.6597E-03     80.0629E-03
             846             266     406.267E-06     413.955E-06
             964             266     406.267E-06     413.955E-06
             961             266     406.267E-06     413.955E-06
             843             266     406.267E-06     413.955E-06
             964             267     441.023E-06     451.388E-06
             846             267     441.023E-06     451.388E-06
             967             267     441.023E-06     451.388E-06
             849             267     441.023E-06     451.388E-06
             967             268     455.827E-06     461.004E-06
             852             268     455.827E-06     461.004E-06
             970             268     455.827E-06     461.004E-06
             849             268     455.827E-06     461.004E-06
             855             269     441.986E-06     441.785E-06
             973             269     441.986E-06     441.785E-06
             970             269     441.986E-06     441.785E-06
             852             269     441.986E-06     441.785E-06
             858             270     418.699E-06     417.148E-06
             855             270     418.699E-06     417.148E-06
             976             270     418.699E-06     417.148E-06
             973             270     418.699E-06     417.148E-06
             858             271     398.155E-06     397.349E-06
             857             271     398.155E-06     397.349E-06
             856             272     348.690E-06     350.504E-06
             857             272     348.690E-06     350.504E-06
             860             273     80.8527E-03     80.2523E-03
             962             273     80.8527E-03     80.2523E-03
             963             273     80.8527E-03     80.2523E-03
             859             273     80.8527E-03     80.2523E-03
             962             274     80.6263E-03     80.0295E-03
             861             274     80.6263E-03     80.0295E-03
             860             274     80.6263E-03     80.0295E-03
             961             274     80.6263E-03     80.0295E-03
             864             275     240.562E-03     237.919E-03
            2028             275     240.562E-03     237.919E-03
             861             275     240.562E-03     237.919E-03
            2031             275     240.562E-03     237.919E-03
             864             276     329.616E-03     323.600E-03
            2031             276     329.616E-03     323.600E-03
             867             276     329.616E-03     323.600E-03
            2034             276     329.616E-03     323.600E-03
            2034             277     347.432E-03     340.299E-03
            2037             277     347.432E-03     340.299E-03
             867             277     347.432E-03     340.299E-03
             870             277     347.432E-03     340.299E-03
            2040             278     359.688E-03     356.007E-03
             873             278     359.688E-03     356.007E-03
            2037             278     359.688E-03     356.007E-03
             870             278     359.688E-03     356.007E-03
             876             279     362.407E-03     365.416E-03
             873             279     362.407E-03     365.416E-03
            2043             279     362.407E-03     365.416E-03
            2040             279     362.407E-03     365.416E-03
             876             280     348.275E-03     356.419E-03
             879             280     348.275E-03     356.419E-03
            2043             280     348.275E-03     356.419E-03
            2046             280     348.275E-03     356.419E-03
            2049             281     316.754E-03     322.992E-03
             882             281     316.754E-03     322.992E-03
            2046             281     316.754E-03     322.992E-03
             879             281     316.754E-03     322.992E-03
             882             282     325.074E-03     321.694E-03
            2052             282     325.074E-03     321.694E-03
            2049             282     325.074E-03     321.694E-03
             885             282     325.074E-03     321.694E-03
             888             283     351.187E-03     337.227E-03
             885             283     351.187E-03     337.227E-03
            2052             283     351.187E-03     337.227E-03
            2055             283     351.187E-03     337.227E-03
            2055             284     358.897E-03     344.992E-03
             891             284     358.897E-03     344.992E-03
            2058             284     358.897E-03     344.992E-03
             888             284     358.897E-03     344.992E-03
             891             285     369.947E-03     371.657E-03
            2058             285     369.947E-03     371.657E-03
             894             285     369.947E-03     371.657E-03
            2061             285     369.947E-03     371.657E-03
             897             286     356.145E-03     372.133E-03
            2061             286     356.145E-03     372.133E-03
            2064             286     356.145E-03     372.133E-03
             894             286     356.145E-03     372.133E-03
            2064             287     316.153E-03     328.556E-03
            2067             287     316.153E-03     328.556E-03
             900             287     316.153E-03     328.556E-03
             897             287     316.153E-03     328.556E-03
             903             288     333.247E-03     327.256E-03
            2067             288     333.247E-03     327.256E-03
             900             288     333.247E-03     327.256E-03
            2070             288     333.247E-03     327.256E-03
             903             289     369.603E-03     344.469E-03
             906             289     369.603E-03     344.469E-03
            2070             289     369.603E-03     344.469E-03
            2073             289     369.603E-03     344.469E-03
             909             290     369.556E-03     343.418E-03
            2076             290     369.556E-03     343.418E-03
             906             290     369.556E-03     343.418E-03
            2073             290     369.556E-03     343.418E-03
            2079             291     379.887E-03     370.470E-03
            2076             291     379.887E-03     370.470E-03
             909             291     379.887E-03     370.470E-03
             912             291     379.887E-03     370.470E-03
             915             292     389.837E-03     404.577E-03
            2082             292     389.837E-03     404.577E-03
            2079             292     389.837E-03     404.577E-03
             912             292     389.837E-03     404.577E-03
            2082             293     372.607E-03     402.281E-03
             918             293     372.607E-03     402.281E-03
            2085             293     372.607E-03     402.281E-03
             915             293     372.607E-03     402.281E-03
             918             294     322.880E-03     342.305E-03
            2085             294     322.880E-03     342.305E-03
            2088             294     322.880E-03     342.305E-03
             921             294     322.880E-03     342.305E-03
            2088             295     351.835E-03     342.468E-03
            2091             295     351.835E-03     342.468E-03
             921             295     351.835E-03     342.468E-03
             924             295     351.835E-03     342.468E-03
             924             296     398.768E-03     363.756E-03
            2094             296     398.768E-03     363.756E-03
            2091             296     398.768E-03     363.756E-03
             927             296     398.768E-03     363.756E-03
             927             297     390.824E-03     357.025E-03
            2097             297     390.824E-03     357.025E-03
             930             297     390.824E-03     357.025E-03
            2094             297     390.824E-03     357.025E-03
             933             298     400.562E-03     390.284E-03
            2100             298     400.562E-03     390.284E-03
            2097             298     400.562E-03     390.284E-03
             930             298     400.562E-03     390.284E-03
             933             299     413.744E-03     435.103E-03
            2103             299     413.744E-03     435.103E-03
            2100             299     413.744E-03     435.103E-03
             936             299     413.744E-03     435.103E-03
             939             300     394.830E-03     434.853E-03
            2103             300     394.830E-03     434.853E-03
            2106             300     394.830E-03     434.853E-03
             936             300     394.830E-03     434.853E-03
            2106             301     337.290E-03     360.968E-03
             942             301     337.290E-03     360.968E-03
            2109             301     337.290E-03     360.968E-03
             939             301     337.290E-03     360.968E-03
            2112             302     381.310E-03     368.879E-03
             945             302     381.310E-03     368.879E-03
             942             302     381.310E-03     368.879E-03
            2109             302     381.310E-03     368.879E-03
            2112             303     435.744E-03     396.546E-03
             945             303     435.744E-03     396.546E-03
            2115             303     435.744E-03     396.546E-03
             948             303     435.744E-03     396.546E-03
             951             304     421.510E-03     392.086E-03
            2115             304     421.510E-03     392.086E-03
            2118             304     421.510E-03     392.086E-03
             948             304     421.510E-03     392.086E-03
            2121             305     435.916E-03     451.057E-03
             954             305     435.916E-03     451.057E-03
             951             305     435.916E-03     451.057E-03
            2118             305     435.916E-03     451.057E-03
            2124             306     414.645E-03     457.367E-03
             954             306     414.645E-03     457.367E-03
             957             306     414.645E-03     457.367E-03
            2121             306     414.645E-03     457.367E-03
            2124             307     352.324E-03     375.762E-03
             957             307     352.324E-03     375.762E-03
            2127             307     352.324E-03     375.762E-03
             960             307     352.324E-03     375.762E-03
             959             308     510.927E-03     498.692E-03
            2226             308     510.927E-03     498.692E-03
             960             308     510.927E-03     498.692E-03
            2227             308     510.927E-03     498.692E-03
            2226             309     996.428E-03     959.415E-03
             958             309     996.428E-03     959.415E-03
             959             309     996.428E-03     959.415E-03
            2225             309     996.428E-03     959.415E-03
             978             310     348.690E-06     350.504E-06
             977             310     348.690E-06     350.504E-06
             976             311     398.155E-06     397.349E-06
             977             311     398.155E-06     397.349E-06
            2128             312     511.298E-03     499.017E-03
            2127             312     511.298E-03     499.017E-03
             979             312     511.298E-03     499.017E-03
             980             312     511.298E-03     499.017E-03
             980             313     996.925E-03     959.879E-03
             981             313     996.925E-03     959.879E-03
            2129             313     996.925E-03     959.879E-03
            2128             313     996.925E-03     959.879E-03
             981             314         1.18128         1.13998
             984             314         1.18128         1.13998
             984             315         1.26397         1.24390
             987             315         1.26397         1.24390
             990             316         1.38990         1.42629
             987             316         1.38990         1.42629
             990             317         1.47227         1.44720
             993             317         1.47227         1.44720
            2838             318         1.22832         1.20018
            2839             318         1.22832         1.20018
             993             318         1.22832         1.20018
             992             318         1.22832         1.20018
            2837             319     701.367E-03     695.418E-03
             992             319     701.367E-03     695.418E-03
            2838             319     701.367E-03     695.418E-03
             991             319     701.367E-03     695.418E-03
             991             320     368.748E-03     382.526E-03
             988             320     368.748E-03     382.526E-03
            2236             320     368.748E-03     382.526E-03
            2239             320     368.748E-03     382.526E-03
            2233             321     437.641E-03     452.401E-03
             985             321     437.641E-03     452.401E-03
            2236             321     437.641E-03     452.401E-03
             988             321     437.641E-03     452.401E-03
             985             322     487.574E-03     477.209E-03
            2233             322     487.574E-03     477.209E-03
             982             322     487.574E-03     477.209E-03
            2230             322     487.574E-03     477.209E-03
             982             323     392.746E-03     380.516E-03
            2230             323     392.746E-03     380.516E-03
             979             323     392.746E-03     380.516E-03
            2227             323     392.746E-03     380.516E-03
            2237             389         1.48880         1.45790
            2234             389         1.48880         1.45790
            2234             390         1.40370         1.43894
            2231             390         1.40370         1.43894
            2228             391         1.27407         1.25940
            2231             391         1.27407         1.25940
            2225             392         1.18307         1.15159
            2228             392         1.18307         1.15159
            2842             393         1.40240         1.40044
            2839             393         1.40240         1.40044
            2845             394         1.34687         1.32067
            2842             394         1.34687         1.32067
            2848             395         1.36923         1.37433
            2845             395         1.36923         1.37433
            2851             396         1.10236         1.10510
            2848             396         1.10236         1.10510
            2133             420         1.41181         1.40965
            2130             420         1.41181         1.40965
            2136             421         1.35394         1.32882
            2133             421         1.35394         1.32882
            2136             422         1.37727         1.37871
            2139             422         1.37727         1.37871
            2142             423         1.10682         1.11177
            2139             423         1.10682         1.11177
            2130             432         1.24523         1.20501
            2237             432         1.24523         1.20501
            2238             432         1.24523         1.20501
            2131             432         1.24523         1.20501
            2131             433     714.922E-03     699.034E-03
            2132             433     714.922E-03     699.034E-03
            2239             433     714.922E-03     699.034E-03
            2238             433     714.922E-03     699.034E-03
            2837             434     788.249E-03     788.532E-03
            2840             434     788.249E-03     788.532E-03
            2135             434     788.249E-03     788.532E-03
            2132             434     788.249E-03     788.532E-03
            2843             435     804.801E-03     803.077E-03
            2840             435     804.801E-03     803.077E-03
            2135             435     804.801E-03     803.077E-03
            2138             435     804.801E-03     803.077E-03
            2843             436     753.429E-03     750.830E-03
            2846             436     753.429E-03     750.830E-03
            2141             436     753.429E-03     750.830E-03
            2138             436     753.429E-03     750.830E-03
            2141             437     861.674E-03     864.335E-03
            2846             437     861.674E-03     864.335E-03
            2849             437     861.674E-03     864.335E-03
            2144             437     861.674E-03     864.335E-03
            2143             438     870.192E-03     864.299E-03
            2144             438     870.192E-03     864.299E-03
            2883             438     870.192E-03     864.299E-03
            2884             438     870.192E-03     864.299E-03
            2882             439         1.00776     981.422E-03
            2883             439         1.00776     981.422E-03
            2142             439         1.00776     981.422E-03
            2143             439         1.00776     981.422E-03
            2882             444         1.12676         1.12813
            2885             444         1.12676         1.12813
            2888             445     885.849E-03     890.828E-03
            2885             445     885.849E-03     890.828E-03
            2888             446     927.369E-03     894.527E-03
            2891             446     927.369E-03     894.527E-03
            2894             447         1.00818     987.467E-03
            2891             447         1.00818     987.467E-03
            2897             448     822.717E-03     819.846E-03
            2894             448     822.717E-03     819.846E-03
            2897             449     696.333E-03     694.210E-03
            2900             449     696.333E-03     694.210E-03
            2900             450     603.323E-03     606.784E-03
            2903             450     603.323E-03     606.784E-03
            2906             451     541.957E-03     557.231E-03
            2903             451     541.957E-03     557.231E-03
            2906             452     548.912E-03     561.570E-03
            2909             452     548.912E-03     561.570E-03
            2909             453     480.231E-03     480.845E-03
            2912             453     480.231E-03     480.845E-03
            2240             468     868.787E-03     862.771E-03
            2849             468     868.787E-03     862.771E-03
            2850             468     868.787E-03     862.771E-03
            2241             468     868.787E-03     862.771E-03
            2242             469         1.00520     978.621E-03
            2851             469         1.00520     978.621E-03
            2241             469         1.00520     978.621E-03
            2850             469         1.00520     978.621E-03
            2242             470         1.12355         1.12834
            2245             470         1.12355         1.12834
            2245             471     885.489E-03     888.576E-03
            2248             471     885.489E-03     888.576E-03
            2251             472     929.751E-03     896.006E-03
            2248             472     929.751E-03     896.006E-03
            2254             473         1.01235     993.004E-03
            2251             473         1.01235     993.004E-03
            2254             474     827.062E-03     824.543E-03
            2257             474     827.062E-03     824.543E-03
            2257             475     699.929E-03     698.910E-03
            2260             475     699.929E-03     698.910E-03
            2260             476     606.451E-03     610.638E-03
            2263             476     606.451E-03     610.638E-03
            2266             477     543.333E-03     559.668E-03
            2263             477     543.333E-03     559.668E-03
            2266             478     547.718E-03     560.736E-03
            2269             478     547.718E-03     560.736E-03
            2269             479     479.544E-03     479.808E-03
            2272             479     479.544E-03     479.808E-03
            2820             480     198.314E-03     196.845E-03
            2271             480     198.314E-03     196.845E-03
            2821             480     198.314E-03     196.845E-03
            2272             480     198.314E-03     196.845E-03
            2271             481     197.685E-03     196.217E-03
            2820             481     197.685E-03     196.217E-03
            2819             481     197.685E-03     196.217E-03
            2270             481     197.685E-03     196.217E-03
            2270             482     589.849E-03     583.582E-03
            2914             482     589.849E-03     583.582E-03
            2267             482     589.849E-03     583.582E-03
            2911             482     589.849E-03     583.582E-03
            2267             483     807.233E-03     793.087E-03
            2264             483     807.233E-03     793.087E-03
            2908             483     807.233E-03     793.087E-03
            2911             483     807.233E-03     793.087E-03
            2908             484     850.259E-03     833.292E-03
            2261             484     850.259E-03     833.292E-03
            2264             484     850.259E-03     833.292E-03
            2905             484     850.259E-03     833.292E-03
            2905             485     880.747E-03     871.872E-03
            2261             485     880.747E-03     871.872E-03
            2902             485     880.747E-03     871.872E-03
            2258             485     880.747E-03     871.872E-03
            2902             486     886.823E-03     894.055E-03
            2258             486     886.823E-03     894.055E-03
            2255             486     886.823E-03     894.055E-03
            2899             486     886.823E-03     894.055E-03
            2899             487     851.021E-03     870.408E-03
            2252             487     851.021E-03     870.408E-03
            2255             487     851.021E-03     870.408E-03
            2896             487     851.021E-03     870.408E-03
            2893             488     774.987E-03     789.667E-03
            2896             488     774.987E-03     789.667E-03
            2249             488     774.987E-03     789.667E-03
            2252             488     774.987E-03     789.667E-03
            2890             489     804.819E-03     812.265E-03
            2893             489     804.819E-03     812.265E-03
            2249             489     804.819E-03     812.265E-03
            2246             489     804.819E-03     812.265E-03
            2243             490     828.794E-03     831.690E-03
            2246             490     828.794E-03     831.690E-03
            2887             490     828.794E-03     831.690E-03
            2890             490     828.794E-03     831.690E-03
            2887             491     742.352E-03     738.889E-03
            2240             491     742.352E-03     738.889E-03
            2243             491     742.352E-03     738.889E-03
            2884             491     742.352E-03     738.889E-03
            2824             562     443.121E-06     436.344E-06
            2821             562     443.121E-06     436.344E-06
            2824             563     353.456E-06     356.137E-06
            2827             563     353.456E-06     356.137E-06
            2827             564     299.014E-06     302.854E-06
            2830             564     299.014E-06     302.854E-06
            2833             565     275.252E-06     283.016E-06
            2830             565     275.252E-06     283.016E-06
            2836             566     289.769E-06     296.418E-06
            2833             566     289.769E-06     296.418E-06
            2913             587     197.885E-03     196.416E-03
            2912             587     197.885E-03     196.416E-03
            2747             587     197.885E-03     196.416E-03
            2746             587     197.885E-03     196.416E-03
            2914             588     197.470E-03     196.002E-03
            2748             588     197.470E-03     196.002E-03
            2913             588     197.470E-03     196.002E-03
            2747             588     197.470E-03     196.002E-03
            2748             589     406.157E-06     413.765E-06
            2822             589     406.157E-06     413.765E-06
            2751             589     406.157E-06     413.765E-06
            2819             589     406.157E-06     413.765E-06
            2751             590     440.722E-06     451.024E-06
            2754             590     440.722E-06     451.024E-06
            2825             590     440.722E-06     451.024E-06
            2822             590     440.722E-06     451.024E-06
            2825             591     455.565E-06     460.773E-06
            2828             591     455.565E-06     460.773E-06
            2754             591     455.565E-06     460.773E-06
            2757             591     455.565E-06     460.773E-06
            2828             592     441.800E-06     441.669E-06
            2760             592     441.800E-06     441.669E-06
            2831             592     441.800E-06     441.669E-06
            2757             592     441.800E-06     441.669E-06
            2831             593     418.646E-06     417.144E-06
            2760             593     418.646E-06     417.144E-06
            2834             593     418.646E-06     417.144E-06
            2763             593     418.646E-06     417.144E-06
            2762             594     398.202E-06     397.429E-06
            2763             594     398.202E-06     397.429E-06
            2762             595     348.686E-06     350.496E-06
            2761             595     348.686E-06     350.496E-06
            2758             596     289.769E-06     296.418E-06
            2761             596     289.769E-06     296.418E-06
            2758             597     275.252E-06     283.016E-06
            2755             597     275.252E-06     283.016E-06
            2752             598     299.014E-06     302.854E-06
            2755             598     299.014E-06     302.854E-06
            2752             599     353.456E-06     356.137E-06
            2749             599     353.456E-06     356.137E-06
            2746             600     443.121E-06     436.344E-06
            2749             600     443.121E-06     436.344E-06
            2836             605     348.686E-06     350.496E-06
            2835             605     348.686E-06     350.496E-06
            2834             606     398.202E-06     397.429E-06
            2835             606     398.202E-06     397.429E-06
             844            1357     433.689E-06     433.719E-06
             841            1357     433.689E-06     433.719E-06
             842            1357     433.689E-06     433.719E-06
             845            1357     433.689E-06     433.719E-06
             846            1358     414.635E-06     421.909E-06
             843            1358     414.635E-06     421.909E-06
             842            1358     414.635E-06     421.909E-06
             845            1358     414.635E-06     421.909E-06
             844            1359     388.548E-06     392.960E-06
             847            1359     388.548E-06     392.960E-06
             848            1359     388.548E-06     392.960E-06
             845            1359     388.548E-06     392.960E-06
             845            1360     431.955E-06     440.214E-06
             849            1360     431.955E-06     440.214E-06
             848            1360     431.955E-06     440.214E-06
             846            1360     431.955E-06     440.214E-06
             850            1361     350.743E-06     354.330E-06
             848            1361     350.743E-06     354.330E-06
             851            1361     350.743E-06     354.330E-06
             847            1361     350.743E-06     354.330E-06
             849            1362     428.940E-06     433.213E-06
             848            1362     428.940E-06     433.213E-06
             852            1362     428.940E-06     433.213E-06
             851            1362     428.940E-06     433.213E-06
             853            1363     339.523E-06     344.397E-06
             854            1363     339.523E-06     344.397E-06
             851            1363     339.523E-06     344.397E-06
             850            1363     339.523E-06     344.397E-06
             854            1364     422.877E-06     423.752E-06
             852            1364     422.877E-06     423.752E-06
             851            1364     422.877E-06     423.752E-06
             855            1364     422.877E-06     423.752E-06
             857            1365     344.431E-06     347.717E-06
             853            1365     344.431E-06     347.717E-06
             854            1365     344.431E-06     347.717E-06
             856            1365     344.431E-06     347.717E-06
             858            1366     408.935E-06     408.090E-06
             854            1366     408.935E-06     408.090E-06
             857            1366     408.935E-06     408.090E-06
             855            1366     408.935E-06     408.090E-06
             859            1367     215.184E-03     213.801E-03
             860            1367     215.184E-03     213.801E-03
             862            1367     215.184E-03     213.801E-03
             863            1367     215.184E-03     213.801E-03
             863            1368     237.589E-03     234.759E-03
             861            1368     237.589E-03     234.759E-03
             864            1368     237.589E-03     234.759E-03
             860            1368     237.589E-03     234.759E-03
             866            1369     269.103E-03     268.902E-03
             865            1369     269.103E-03     268.902E-03
             863            1369     269.103E-03     268.902E-03
             862            1369     269.103E-03     268.902E-03
             863            1370     322.013E-03     316.094E-03
             867            1370     322.013E-03     316.094E-03
             864            1370     322.013E-03     316.094E-03
             866            1370     322.013E-03     316.094E-03
             865            1371     270.798E-03     272.496E-03
             868            1371     270.798E-03     272.496E-03
             869            1371     270.798E-03     272.496E-03
             866            1371     270.798E-03     272.496E-03
             867            1372     333.520E-03     328.408E-03
             870            1372     333.520E-03     328.408E-03
             866            1372     333.520E-03     328.408E-03
             869            1372     333.520E-03     328.408E-03
             871            1373     283.786E-03     285.247E-03
             872            1373     283.786E-03     285.247E-03
             868            1373     283.786E-03     285.247E-03
             869            1373     283.786E-03     285.247E-03
             872            1374     339.357E-03     338.263E-03
             870            1374     339.357E-03     338.263E-03
             869            1374     339.357E-03     338.263E-03
             873            1374     339.357E-03     338.263E-03
             874            1375     308.568E-03     308.585E-03
             871            1375     308.568E-03     308.585E-03
             875            1375     308.568E-03     308.585E-03
             872            1375     308.568E-03     308.585E-03
             873            1376     345.943E-03     347.864E-03
             876            1376     345.943E-03     347.864E-03
             875            1376     345.943E-03     347.864E-03
             872            1376     345.943E-03     347.864E-03
             877            1377     346.689E-03     347.557E-03
             878            1377     346.689E-03     347.557E-03
             874            1377     346.689E-03     347.557E-03
             875            1377     346.689E-03     347.557E-03
             875            1378     350.674E-03     356.184E-03
             876            1378     350.674E-03     356.184E-03
             878            1378     350.674E-03     356.184E-03
             879            1378     350.674E-03     356.184E-03
             878            1379     384.387E-03     382.121E-03
             881            1379     384.387E-03     382.121E-03
             880            1379     384.387E-03     382.121E-03
             877            1379     384.387E-03     382.121E-03
             881            1380     334.196E-03     339.164E-03
             878            1380     334.196E-03     339.164E-03
             879            1380     334.196E-03     339.164E-03
             882            1380     334.196E-03     339.164E-03
             884            1381     360.039E-03     345.387E-03
             881            1381     360.039E-03     345.387E-03
             883            1381     360.039E-03     345.387E-03
             880            1381     360.039E-03     345.387E-03
             881            1382     335.978E-03     328.977E-03
             882            1382     335.978E-03     328.977E-03
             885            1382     335.978E-03     328.977E-03
             884            1382     335.978E-03     328.977E-03
             887            1383     346.488E-03     338.209E-03
             883            1383     346.488E-03     338.209E-03
             886            1383     346.488E-03     338.209E-03
             884            1383     346.488E-03     338.209E-03
             885            1384     359.151E-03     344.559E-03
             887            1384     359.151E-03     344.559E-03
             888            1384     359.151E-03     344.559E-03
             884            1384     359.151E-03     344.559E-03
             887            1385     387.680E-03     393.498E-03
             889            1385     387.680E-03     393.498E-03
             890            1385     387.680E-03     393.498E-03
             886            1385     387.680E-03     393.498E-03
             890            1386     369.378E-03     363.100E-03
             887            1386     369.378E-03     363.100E-03
             891            1386     369.378E-03     363.100E-03
             888            1386     369.378E-03     363.100E-03
             889            1387     424.417E-03     428.396E-03
             892            1387     424.417E-03     428.396E-03
             890            1387     424.417E-03     428.396E-03
             893            1387     424.417E-03     428.396E-03
             890            1388     382.020E-03     386.808E-03
             894            1388     382.020E-03     386.808E-03
             893            1388     382.020E-03     386.808E-03
             891            1388     382.020E-03     386.808E-03
             895            1389     473.037E-03     478.825E-03
             896            1389     473.037E-03     478.825E-03
             893            1389     473.037E-03     478.825E-03
             892            1389     473.037E-03     478.825E-03
             897            1390     390.302E-03     403.700E-03
             893            1390     390.302E-03     403.700E-03
             896            1390     390.302E-03     403.700E-03
             894            1390     390.302E-03     403.700E-03
             899            1391     513.642E-03     508.381E-03
             896            1391     513.642E-03     508.381E-03
             898            1391     513.642E-03     508.381E-03
             895            1391     513.642E-03     508.381E-03
             900            1392     368.814E-03     377.659E-03
             896            1392     368.814E-03     377.659E-03
             897            1392     368.814E-03     377.659E-03
             899            1392     368.814E-03     377.659E-03
             898            1393     484.376E-03     450.522E-03
             901            1393     484.376E-03     450.522E-03
             899            1393     484.376E-03     450.522E-03
             902            1393     484.376E-03     450.522E-03
             902            1394     374.644E-03     359.100E-03
             899            1394     374.644E-03     359.100E-03
             903            1394     374.644E-03     359.100E-03
             900            1394     374.644E-03     359.100E-03
             904            1395     471.713E-03     452.850E-03
             901            1395     471.713E-03     452.850E-03
             905            1395     471.713E-03     452.850E-03
             902            1395     471.713E-03     452.850E-03
             903            1396     405.462E-03     379.860E-03
             906            1396     405.462E-03     379.860E-03
             902            1396     405.462E-03     379.860E-03
             905            1396     405.462E-03     379.860E-03
             907            1397     523.410E-03     531.316E-03
             904            1397     523.410E-03     531.316E-03
             908            1397     523.410E-03     531.316E-03
             905            1397     523.410E-03     531.316E-03
             906            1398     415.556E-03     404.182E-03
             905            1398     415.556E-03     404.182E-03
             909            1398     415.556E-03     404.182E-03
             908            1398     415.556E-03     404.182E-03
             908            1399     567.811E-03     572.387E-03
             910            1399     567.811E-03     572.387E-03
             911            1399     567.811E-03     572.387E-03
             907            1399     567.811E-03     572.387E-03
             912            1400     431.953E-03     432.793E-03
             911            1400     431.953E-03     432.793E-03
             909            1400     431.953E-03     432.793E-03
             908            1400     431.953E-03     432.793E-03
             914            1401     611.358E-03     613.474E-03
             910            1401     611.358E-03     613.474E-03
             911            1401     611.358E-03     613.474E-03
             913            1401     611.358E-03     613.474E-03
             914            1402     450.547E-03     462.303E-03
             915            1402     450.547E-03     462.303E-03
             912            1402     450.547E-03     462.303E-03
             911            1402     450.547E-03     462.303E-03
             916            1403     664.995E-03     673.155E-03
             917            1403     664.995E-03     673.155E-03
             913            1403     664.995E-03     673.155E-03
             914            1403     664.995E-03     673.155E-03
             917            1404     461.237E-03     484.711E-03
             918            1404     461.237E-03     484.711E-03
             915            1404     461.237E-03     484.711E-03
             914            1404     461.237E-03     484.711E-03
             916            1405     702.398E-03     690.419E-03
             919            1405     702.398E-03     690.419E-03
             917            1405     702.398E-03     690.419E-03
             920            1405     702.398E-03     690.419E-03
             917            1406     432.023E-03     442.284E-03
             918            1406     432.023E-03     442.284E-03
             921            1406     432.023E-03     442.284E-03
             920            1406     432.023E-03     442.284E-03
             920            1407     663.219E-03     607.594E-03
             919            1407     663.219E-03     607.594E-03
             922            1407     663.219E-03     607.594E-03
             923            1407     663.219E-03     607.594E-03
             924            1408     439.216E-03     412.422E-03
             921            1408     439.216E-03     412.422E-03
             923            1408     439.216E-03     412.422E-03
             920            1408     439.216E-03     412.422E-03
             922            1409     650.665E-03     622.611E-03
             926            1409     650.665E-03     622.611E-03
             923            1409     650.665E-03     622.611E-03
             925            1409     650.665E-03     622.611E-03
             923            1410     478.461E-03     443.485E-03
             924            1410     478.461E-03     443.485E-03
             927            1410     478.461E-03     443.485E-03
             926            1410     478.461E-03     443.485E-03
             926            1411     709.999E-03     721.931E-03
             929            1411     709.999E-03     721.931E-03
             925            1411     709.999E-03     721.931E-03
             928            1411     709.999E-03     721.931E-03
             927            1412     488.564E-03     476.579E-03
             926            1412     488.564E-03     476.579E-03
             929            1412     488.564E-03     476.579E-03
             930            1412     488.564E-03     476.579E-03
             932            1413     757.878E-03     764.416E-03
             929            1413     757.878E-03     764.416E-03
             928            1413     757.878E-03     764.416E-03
             931            1413     757.878E-03     764.416E-03
             929            1414     506.852E-03     510.075E-03
             932            1414     506.852E-03     510.075E-03
             933            1414     506.852E-03     510.075E-03
             930            1414     506.852E-03     510.075E-03
             932            1415     803.767E-03     807.621E-03
             934            1415     803.767E-03     807.621E-03
             935            1415     803.767E-03     807.621E-03
             931            1415     803.767E-03     807.621E-03
             932            1416     528.656E-03     546.312E-03
             933            1416     528.656E-03     546.312E-03
             935            1416     528.656E-03     546.312E-03
             936            1416     528.656E-03     546.312E-03
             937            1417     859.649E-03     872.152E-03
             938            1417     859.649E-03     872.152E-03
             934            1417     859.649E-03     872.152E-03
             935            1417     859.649E-03     872.152E-03
             935            1418     540.007E-03     572.360E-03
             938            1418     540.007E-03     572.360E-03
             936            1418     540.007E-03     572.360E-03
             939            1418     540.007E-03     572.360E-03
             940            1419     893.516E-03     874.837E-03
             938            1419     893.516E-03     874.837E-03
             941            1419     893.516E-03     874.837E-03
             937            1419     893.516E-03     874.837E-03
             939            1420     503.849E-03     513.828E-03
             938            1420     503.849E-03     513.828E-03
             942            1420     503.849E-03     513.828E-03
             941            1420     503.849E-03     513.828E-03
             943            1421     849.468E-03     775.957E-03
             941            1421     849.468E-03     775.957E-03
             940            1421     849.468E-03     775.957E-03
             944            1421     849.468E-03     775.957E-03
             945            1422     515.091E-03     478.505E-03
             942            1422     515.091E-03     478.505E-03
             941            1422     515.091E-03     478.505E-03
             944            1422     515.091E-03     478.505E-03
             947            1423     847.574E-03     815.321E-03
             944            1423     847.574E-03     815.321E-03
             943            1423     847.574E-03     815.321E-03
             946            1423     847.574E-03     815.321E-03
             945            1424     565.260E-03     526.979E-03
             948            1424     565.260E-03     526.979E-03
             947            1424     565.260E-03     526.979E-03
             944            1424     565.260E-03     526.979E-03
             946            1425     914.504E-03     935.183E-03
             949            1425     914.504E-03     935.183E-03
             947            1425     914.504E-03     935.183E-03
             950            1425     914.504E-03     935.183E-03
             948            1426     576.472E-03     573.226E-03
             951            1426     576.472E-03     573.226E-03
             947            1426     576.472E-03     573.226E-03
             950            1426     576.472E-03     573.226E-03
             952            1427     960.972E-03     976.675E-03
             950            1427     960.972E-03     976.675E-03
             949            1427     960.972E-03     976.675E-03
             953            1427     960.972E-03     976.675E-03
             950            1428     596.662E-03     620.988E-03
             954            1428     596.662E-03     620.988E-03
             953            1428     596.662E-03     620.988E-03
             951            1428     596.662E-03     620.988E-03
             955            1429         1.01899         1.04065
             953            1429         1.01899         1.04065
             952            1429         1.01899         1.04065
             956            1429         1.01899         1.04065
             954            1430     606.718E-03     645.899E-03
             956            1430     606.718E-03     645.899E-03
             953            1430     606.718E-03     645.899E-03
             957            1430     606.718E-03     645.899E-03
             959            1431         1.05022         1.02848
             958            1431         1.05022         1.02848
             956            1431         1.05022         1.02848
             955            1431         1.05022         1.02848
             960            1432     565.153E-03     574.555E-03
             957            1432     565.153E-03     574.555E-03
             959            1432     565.153E-03     574.555E-03
             956            1432     565.153E-03     574.555E-03
             962            1433     414.635E-06     421.909E-06
             961            1433     414.635E-06     421.909E-06
             964            1433     414.635E-06     421.909E-06
             965            1433     414.635E-06     421.909E-06
             966            1434     433.689E-06     433.719E-06
             963            1434     433.689E-06     433.719E-06
             962            1434     433.689E-06     433.719E-06
             965            1434     433.689E-06     433.719E-06
             965            1435     431.955E-06     440.214E-06
             964            1435     431.955E-06     440.214E-06
             967            1435     431.955E-06     440.214E-06
             968            1435     431.955E-06     440.214E-06
             969            1436     388.548E-06     392.960E-06
             966            1436     388.548E-06     392.960E-06
             965            1436     388.548E-06     392.960E-06
             968            1436     388.548E-06     392.960E-06
             968            1437     428.940E-06     433.213E-06
             967            1437     428.940E-06     433.213E-06
             971            1437     428.940E-06     433.213E-06
             970            1437     428.940E-06     433.213E-06
             969            1438     350.743E-06     354.330E-06
             972            1438     350.743E-06     354.330E-06
             968            1438     350.743E-06     354.330E-06
             971            1438     350.743E-06     354.330E-06
             971            1439     422.877E-06     423.752E-06
             970            1439     422.877E-06     423.752E-06
             973            1439     422.877E-06     423.752E-06
             974            1439     422.877E-06     423.752E-06
             972            1440     339.523E-06     344.397E-06
             975            1440     339.523E-06     344.397E-06
             971            1440     339.523E-06     344.397E-06
             974            1440     339.523E-06     344.397E-06
             974            1441     408.935E-06     408.090E-06
             977            1441     408.935E-06     408.090E-06
             976            1441     408.935E-06     408.090E-06
             973            1441     408.935E-06     408.090E-06
             975            1442     344.431E-06     347.717E-06
             978            1442     344.431E-06     347.717E-06
             977            1442     344.431E-06     347.717E-06
             974            1442     344.431E-06     347.717E-06
             979            1443     575.969E-03     550.331E-03
             980            1443     575.969E-03     550.331E-03
             982            1443     575.969E-03     550.331E-03
             983            1443     575.969E-03     550.331E-03
             983            1444     970.621E-03     931.170E-03
             980            1444     970.621E-03     931.170E-03
             984            1444     970.621E-03     931.170E-03
             981            1444     970.621E-03     931.170E-03
             983            1445     663.322E-03     649.084E-03
             986            1445     663.322E-03     649.084E-03
             982            1445     663.322E-03     649.084E-03
             985            1445     663.322E-03     649.084E-03
             984            1446         1.05255         1.03483
             987            1446         1.05255         1.03483
             983            1446         1.05255         1.03483
             986            1446         1.05255         1.03483
             985            1447     666.398E-03     705.058E-03
             986            1447     666.398E-03     705.058E-03
             988            1447     666.398E-03     705.058E-03
             989            1447     666.398E-03     705.058E-03
             990            1448         1.14450         1.19429
             986            1448         1.14450         1.19429
             987            1448         1.14450         1.19429
             989            1448         1.14450         1.19429
             988            1449     613.092E-03     633.055E-03
             992            1449     613.092E-03     633.055E-03
             991            1449     613.092E-03     633.055E-03
             989            1449     613.092E-03     633.055E-03
             992            1450         1.16828         1.16670
             990            1450         1.16828         1.16670
             993            1450         1.16828         1.16670
             989            1450         1.16828         1.16670
            2032            2310     237.580E-03     234.723E-03
            2029            2310     237.580E-03     234.723E-03
            2028            2310     237.580E-03     234.723E-03
            2031            2310     237.580E-03     234.723E-03
            2030            2311     215.007E-03     213.587E-03
            2033            2311     215.007E-03     213.587E-03
            2029            2311     215.007E-03     213.587E-03
            2032            2311     215.007E-03     213.587E-03
            2031            2312     321.985E-03     316.036E-03
            2034            2312     321.985E-03     316.036E-03
            2035            2312     321.985E-03     316.036E-03
            2032            2312     321.985E-03     316.036E-03
            2032            2313     268.875E-03     268.662E-03
            2033            2313     268.875E-03     268.662E-03
            2036            2313     268.875E-03     268.662E-03
            2035            2313     268.875E-03     268.662E-03
            2038            2314     333.626E-03     328.529E-03
            2035            2314     333.626E-03     328.529E-03
            2037            2314     333.626E-03     328.529E-03
            2034            2314     333.626E-03     328.529E-03
            2038            2315     271.079E-03     272.812E-03
            2036            2315     271.079E-03     272.812E-03
            2035            2315     271.079E-03     272.812E-03
            2039            2315     271.079E-03     272.812E-03
            2041            2316     339.630E-03     338.562E-03
            2040            2316     339.630E-03     338.562E-03
            2037            2316     339.630E-03     338.562E-03
            2038            2316     339.630E-03     338.562E-03
            2039            2317     284.456E-03     285.932E-03
            2038            2317     284.456E-03     285.932E-03
            2041            2317     284.456E-03     285.932E-03
            2042            2317     284.456E-03     285.932E-03
            2043            2318     346.389E-03     348.326E-03
            2041            2318     346.389E-03     348.326E-03
            2040            2318     346.389E-03     348.326E-03
            2044            2318     346.389E-03     348.326E-03
            2041            2319     309.496E-03     309.512E-03
            2042            2319     309.496E-03     309.512E-03
            2044            2319     309.496E-03     309.512E-03
            2045            2319     309.496E-03     309.512E-03
            2047            2320     351.245E-03     356.770E-03
            2046            2320     351.245E-03     356.770E-03
            2044            2320     351.245E-03     356.770E-03
            2043            2320     351.245E-03     356.770E-03
            2048            2321     347.832E-03     348.702E-03
            2045            2321     347.832E-03     348.702E-03
            2044            2321     347.832E-03     348.702E-03
            2047            2321     347.832E-03     348.702E-03
            2047            2322     334.839E-03     339.786E-03
            2050            2322     334.839E-03     339.786E-03
            2049            2322     334.839E-03     339.786E-03
            2046            2322     334.839E-03     339.786E-03
            2048            2323     385.687E-03     383.382E-03
            2050            2323     385.687E-03     383.382E-03
            2051            2323     385.687E-03     383.382E-03
            2047            2323     385.687E-03     383.382E-03
            2050            2324     336.492E-03     329.419E-03
            2053            2324     336.492E-03     329.419E-03
            2049            2324     336.492E-03     329.419E-03
            2052            2324     336.492E-03     329.419E-03
            2050            2325     361.088E-03     346.305E-03
            2054            2325     361.088E-03     346.305E-03
            2051            2325     361.088E-03     346.305E-03
            2053            2325     361.088E-03     346.305E-03
            2052            2326     359.597E-03     344.971E-03
            2053            2326     359.597E-03     344.971E-03
            2056            2326     359.597E-03     344.971E-03
            2055            2326     359.597E-03     344.971E-03
            2054            2327     347.386E-03     339.038E-03
            2053            2327     347.386E-03     339.038E-03
            2056            2327     347.386E-03     339.038E-03
            2057            2327     347.386E-03     339.038E-03
            2058            2328     369.986E-03     363.749E-03
            2059            2328     369.986E-03     363.749E-03
            2055            2328     369.986E-03     363.749E-03
            2056            2328     369.986E-03     363.749E-03
            2057            2329     388.833E-03     394.683E-03
            2060            2329     388.833E-03     394.683E-03
            2059            2329     388.833E-03     394.683E-03
            2056            2329     388.833E-03     394.683E-03
            2061            2330     382.779E-03     387.624E-03
            2062            2330     382.779E-03     387.624E-03
            2058            2330     382.779E-03     387.624E-03
            2059            2330     382.779E-03     387.624E-03
            2063            2331     425.725E-03     429.730E-03
            2059            2331     425.725E-03     429.730E-03
            2062            2331     425.725E-03     429.730E-03
            2060            2331     425.725E-03     429.730E-03
            2062            2332     391.158E-03     404.588E-03
            2061            2332     391.158E-03     404.588E-03
            2065            2332     391.158E-03     404.588E-03
            2064            2332     391.158E-03     404.588E-03
            2062            2333     474.466E-03     480.276E-03
            2066            2333     474.466E-03     480.276E-03
            2063            2333     474.466E-03     480.276E-03
            2065            2333     474.466E-03     480.276E-03
            2065            2334     369.718E-03     378.522E-03
            2068            2334     369.718E-03     378.522E-03
            2064            2334     369.718E-03     378.522E-03
            2067            2334     369.718E-03     378.522E-03
            2069            2335     515.158E-03     509.856E-03
            2065            2335     515.158E-03     509.856E-03
            2066            2335     515.158E-03     509.856E-03
            2068            2335     515.158E-03     509.856E-03
            2068            2336     375.414E-03     359.774E-03
            2071            2336     375.414E-03     359.774E-03
            2067            2336     375.414E-03     359.774E-03
            2070            2336     375.414E-03     359.774E-03
            2072            2337     485.732E-03     451.744E-03
            2068            2337     485.732E-03     451.744E-03
            2069            2337     485.732E-03     451.744E-03
            2071            2337     485.732E-03     451.744E-03
            2074            2338     406.171E-03     380.536E-03
            2073            2338     406.171E-03     380.536E-03
            2070            2338     406.171E-03     380.536E-03
            2071            2338     406.171E-03     380.536E-03
            2071            2339     472.973E-03     454.051E-03
            2074            2339     472.973E-03     454.051E-03
            2075            2339     472.973E-03     454.051E-03
            2072            2339     472.973E-03     454.051E-03
            2074            2340     416.421E-03     405.111E-03
            2076            2340     416.421E-03     405.111E-03
            2077            2340     416.421E-03     405.111E-03
            2073            2340     416.421E-03     405.111E-03
            2078            2341     524.812E-03     532.752E-03
            2075            2341     524.812E-03     532.752E-03
            2077            2341     524.812E-03     532.752E-03
            2074            2341     524.812E-03     532.752E-03
            2080            2342     432.917E-03     433.820E-03
            2076            2342     432.917E-03     433.820E-03
            2077            2342     432.917E-03     433.820E-03
            2079            2342     432.917E-03     433.820E-03
            2077            2343     569.299E-03     573.894E-03
            2078            2343     569.299E-03     573.894E-03
            2081            2343     569.299E-03     573.894E-03
            2080            2343     569.299E-03     573.894E-03
            2082            2344     451.601E-03     463.394E-03
            2079            2344     451.601E-03     463.394E-03
            2080            2344     451.601E-03     463.394E-03
            2083            2344     451.601E-03     463.394E-03
            2084            2345     612.905E-03     615.033E-03
            2081            2345     612.905E-03     615.033E-03
            2083            2345     612.905E-03     615.033E-03
            2080            2345     612.905E-03     615.033E-03
            2086            2346     462.338E-03     485.815E-03
            2085            2346     462.338E-03     485.815E-03
            2082            2346     462.338E-03     485.815E-03
            2083            2346     462.338E-03     485.815E-03
            2087            2347     666.593E-03     674.764E-03
            2086            2347     666.593E-03     674.764E-03
            2083            2347     666.593E-03     674.764E-03
            2084            2347     666.593E-03     674.764E-03
            2089            2348     433.151E-03     443.334E-03
            2085            2348     433.151E-03     443.334E-03
            2086            2348     433.151E-03     443.334E-03
            2088            2348     433.151E-03     443.334E-03
            2086            2349     704.037E-03     692.002E-03
            2087            2349     704.037E-03     692.002E-03
            2090            2349     704.037E-03     692.002E-03
            2089            2349     704.037E-03     692.002E-03
            2092            2350     440.195E-03     413.289E-03
            2089            2350     440.195E-03     413.289E-03
            2091            2350     440.195E-03     413.289E-03
            2088            2350     440.195E-03     413.289E-03
            2092            2351     664.732E-03     608.979E-03
            2093            2351     664.732E-03     608.979E-03
            2090            2351     664.732E-03     608.979E-03
            2089            2351     664.732E-03     608.979E-03
            2092            2352     479.374E-03     444.377E-03
            2094            2352     479.374E-03     444.377E-03
            2095            2352     479.374E-03     444.377E-03
            2091            2352     479.374E-03     444.377E-03
            2095            2353     652.110E-03     624.008E-03
            2096            2353     652.110E-03     624.008E-03
            2093            2353     652.110E-03     624.008E-03
            2092            2353     652.110E-03     624.008E-03
            2094            2354     489.639E-03     477.734E-03
            2095            2354     489.639E-03     477.734E-03
            2098            2354     489.639E-03     477.734E-03
            2097            2354     489.639E-03     477.734E-03
            2095            2355     711.545E-03     723.508E-03
            2098            2355     711.545E-03     723.508E-03
            2099            2355     711.545E-03     723.508E-03
            2096            2355     711.545E-03     723.508E-03
            2098            2356     508.008E-03     511.306E-03
            2101            2356     508.008E-03     511.306E-03
            2100            2356     508.008E-03     511.306E-03
            2097            2356     508.008E-03     511.306E-03
            2099            2357     759.475E-03     766.030E-03
            2101            2357     759.475E-03     766.030E-03
            2098            2357     759.475E-03     766.030E-03
            2102            2357     759.475E-03     766.030E-03
            2100            2358     529.876E-03     547.569E-03
            2104            2358     529.876E-03     547.569E-03
            2103            2358     529.876E-03     547.569E-03
            2101            2358     529.876E-03     547.569E-03
            2102            2359     805.401E-03     809.266E-03
            2101            2359     805.401E-03     809.266E-03
            2105            2359     805.401E-03     809.266E-03
            2104            2359     805.401E-03     809.266E-03
            2107            2360     541.259E-03     573.601E-03
            2103            2360     541.259E-03     573.601E-03
            2104            2360     541.259E-03     573.601E-03
            2106            2360     541.259E-03     573.601E-03
            2107            2361     861.314E-03     873.827E-03
            2108            2361     861.314E-03     873.827E-03
            2105            2361     861.314E-03     873.827E-03
            2104            2361     861.314E-03     873.827E-03
            2109            2362     505.123E-03     515.007E-03
            2106            2362     505.123E-03     515.007E-03
            2107            2362     505.123E-03     515.007E-03
            2110            2362     505.123E-03     515.007E-03
            2111            2363     895.205E-03     876.469E-03
            2107            2363     895.205E-03     876.469E-03
            2110            2363     895.205E-03     876.469E-03
            2108            2363     895.205E-03     876.469E-03
            2109            2364     516.207E-03     479.513E-03
            2113            2364     516.207E-03     479.513E-03
            2110            2364     516.207E-03     479.513E-03
            2112            2364     516.207E-03     479.513E-03
            2111            2365     851.048E-03     777.421E-03
            2113            2365     851.048E-03     777.421E-03
            2110            2365     851.048E-03     777.421E-03
            2114            2365     851.048E-03     777.421E-03
            2112            2366     566.307E-03     528.020E-03
            2116            2366     566.307E-03     528.020E-03
            2113            2366     566.307E-03     528.020E-03
            2115            2366     566.307E-03     528.020E-03
            2117            2367     849.103E-03     816.813E-03
            2116            2367     849.103E-03     816.813E-03
            2114            2367     849.103E-03     816.813E-03
            2113            2367     849.103E-03     816.813E-03
            2115            2368     577.689E-03     574.526E-03
            2116            2368     577.689E-03     574.526E-03
            2119            2368     577.689E-03     574.526E-03
            2118            2368     577.689E-03     574.526E-03
            2117            2369     916.119E-03     936.826E-03
            2116            2369     916.119E-03     936.826E-03
            2119            2369     916.119E-03     936.826E-03
            2120            2369     916.119E-03     936.826E-03
            2118            2370     597.973E-03     622.376E-03
            2119            2370     597.973E-03     622.376E-03
            2121            2370     597.973E-03     622.376E-03
            2122            2370     597.973E-03     622.376E-03
            2119            2371     962.623E-03     978.346E-03
            2123            2371     962.623E-03     978.346E-03
            2122            2371     962.623E-03     978.346E-03
            2120            2371     962.623E-03     978.346E-03
            2124            2372     608.059E-03     647.242E-03
            2122            2372     608.059E-03     647.242E-03
            2121            2372     608.059E-03     647.242E-03
            2125            2372     608.059E-03     647.242E-03
            2125            2373         1.02068         1.04236
            2122            2373         1.02068         1.04236
            2123            2373         1.02068         1.04236
            2126            2373         1.02068         1.04236
            2125            2374     566.517E-03     575.832E-03
            2124            2374     566.517E-03     575.832E-03
            2127            2374     566.517E-03     575.832E-03
            2128            2374     566.517E-03     575.832E-03
            2128            2375         1.05193         1.03014
            2126            2375         1.05193         1.03014
            2125            2375         1.05193         1.03014
            2129            2375         1.05193         1.03014
            2134            2376         1.25525         1.25388
            2133            2376         1.25525         1.25388
            2130            2376         1.25525         1.25388
            2131            2376         1.25525         1.25388
            2132            2377     944.413E-03     944.054E-03
            2134            2377     944.413E-03     944.054E-03
            2131            2377     944.413E-03     944.054E-03
            2135            2377     944.413E-03     944.054E-03
            2137            2378         1.20995         1.20184
            2136            2378         1.20995         1.20184
            2133            2378         1.20995         1.20184
            2134            2378         1.20995         1.20184
            2134            2379     935.948E-03     939.555E-03
            2135            2379     935.948E-03     939.555E-03
            2138            2379     935.948E-03     939.555E-03
            2137            2379     935.948E-03     939.555E-03
            2136            2380         1.19941         1.21262
            2139            2380         1.19941         1.21262
            2140            2380         1.19941         1.21262
            2137            2380         1.19941         1.21262
            2137            2381     888.101E-03     898.980E-03
            2140            2381     888.101E-03     898.980E-03
            2141            2381     888.101E-03     898.980E-03
            2138            2381     888.101E-03     898.980E-03
            2140            2382         1.07248         1.07298
            2143            2382         1.07248         1.07298
            2142            2382         1.07248         1.07298
            2139            2382         1.07248         1.07298
            2143            2383     950.213E-03     949.729E-03
            2144            2383     950.213E-03     949.729E-03
            2141            2383     950.213E-03     949.729E-03
            2140            2383     950.213E-03     949.729E-03
            2225            2440     972.408E-03     941.456E-03
            2226            2440     972.408E-03     941.456E-03
            2228            2440     972.408E-03     941.456E-03
            2229            2440     972.408E-03     941.456E-03
            2230            2441     577.635E-03     557.023E-03
            2227            2441     577.635E-03     557.023E-03
            2226            2441     577.635E-03     557.023E-03
            2229            2441     577.635E-03     557.023E-03
            2232            2442         1.06082         1.05079
            2229            2442         1.06082         1.05079
            2231            2442         1.06082         1.05079
            2228            2442         1.06082         1.05079
            2232            2443     668.600E-03     662.088E-03
            2233            2443     668.600E-03     662.088E-03
            2230            2443     668.600E-03     662.088E-03
            2229            2443     668.600E-03     662.088E-03
            2234            2444         1.15799         1.20710
            2231            2444         1.15799         1.20710
            2235            2444         1.15799         1.20710
            2232            2444         1.15799         1.20710
            2233            2445     676.941E-03     716.119E-03
            2235            2445     676.941E-03     716.119E-03
            2236            2445     676.941E-03     716.119E-03
            2232            2445     676.941E-03     716.119E-03
            2234            2446         1.18558         1.17594
            2237            2446         1.18558         1.17594
            2238            2446         1.18558         1.17594
            2235            2446         1.18558         1.17594
            2235            2447     628.984E-03     639.567E-03
            2238            2447     628.984E-03     639.567E-03
            2239            2447     628.984E-03     639.567E-03
            2236            2447     628.984E-03     639.567E-03
            2244            2448     831.850E-03     839.454E-03
            2240            2448     831.850E-03     839.454E-03
            2243            2448     831.850E-03     839.454E-03
            2241            2448     831.850E-03     839.454E-03
            2242            2449         1.02266         1.03415
            2241            2449         1.02266         1.03415
            2244            2449         1.02266         1.03415
            2245            2449         1.02266         1.03415
            2243            2450     887.651E-03     884.773E-03
            2247            2450     887.651E-03     884.773E-03
            2246            2450     887.651E-03     884.773E-03
            2244            2450     887.651E-03     884.773E-03
            2247            2451     916.012E-03     913.356E-03
            2248            2451     916.012E-03     913.356E-03
            2245            2451     916.012E-03     913.356E-03
            2244            2451     916.012E-03     913.356E-03
            2250            2452     836.086E-03     832.370E-03
            2247            2452     836.086E-03     832.370E-03
            2249            2452     836.086E-03     832.370E-03
            2246            2452     836.086E-03     832.370E-03
            2250            2453     898.427E-03     874.178E-03
            2247            2453     898.427E-03     874.178E-03
            2251            2453     898.427E-03     874.178E-03
            2248            2453     898.427E-03     874.178E-03
            2252            2454     817.143E-03     829.208E-03
            2253            2454     817.143E-03     829.208E-03
            2249            2454     817.143E-03     829.208E-03
            2250            2454     817.143E-03     829.208E-03
            2250            2455     935.634E-03     930.595E-03
            2251            2455     935.634E-03     930.595E-03
            2254            2455     935.634E-03     930.595E-03
            2253            2455     935.634E-03     930.595E-03
            2255            2456     857.668E-03     871.033E-03
            2253            2456     857.668E-03     871.033E-03
            2256            2456     857.668E-03     871.033E-03
            2252            2456     857.668E-03     871.033E-03
            2253            2457     845.457E-03     847.878E-03
            2254            2457     845.457E-03     847.878E-03
            2256            2457     845.457E-03     847.878E-03
            2257            2457     845.457E-03     847.878E-03
            2258            2458     847.195E-03     852.292E-03
            2255            2458     847.195E-03     852.292E-03
            2259            2458     847.195E-03     852.292E-03
            2256            2458     847.195E-03     852.292E-03
            2259            2459     753.617E-03     754.441E-03
            2257            2459     753.617E-03     754.441E-03
            2260            2459     753.617E-03     754.441E-03
            2256            2459     753.617E-03     754.441E-03
            2261            2460     831.566E-03     829.321E-03
            2258            2460     831.566E-03     829.321E-03
            2259            2460     831.566E-03     829.321E-03
            2262            2460     831.566E-03     829.321E-03
            2263            2461     694.360E-03     698.537E-03
            2259            2461     694.360E-03     698.537E-03
            2260            2461     694.360E-03     698.537E-03
            2262            2461     694.360E-03     698.537E-03
            2264            2462     817.328E-03     804.958E-03
            2262            2462     817.328E-03     804.958E-03
            2261            2462     817.328E-03     804.958E-03
            2265            2462     817.328E-03     804.958E-03
            2263            2463     663.750E-03     668.152E-03
            2265            2463     663.750E-03     668.152E-03
            2262            2463     663.750E-03     668.152E-03
            2266            2463     663.750E-03     668.152E-03
            2264            2464     789.020E-03     774.492E-03
            2268            2464     789.020E-03     774.492E-03
            2265            2464     789.020E-03     774.492E-03
            2267            2464     789.020E-03     774.492E-03
            2265            2465     659.209E-03     658.328E-03
            2266            2465     659.209E-03     658.328E-03
            2268            2465     659.209E-03     658.328E-03
            2269            2465     659.209E-03     658.328E-03
            2271            2466     582.567E-03     575.605E-03
            2267            2466     582.567E-03     575.605E-03
            2270            2466     582.567E-03     575.605E-03
            2268            2466     582.567E-03     575.605E-03
            2269            2467     527.397E-03     523.688E-03
            2268            2467     527.397E-03     523.688E-03
            2271            2467     527.397E-03     523.688E-03
            2272            2467     527.397E-03     523.688E-03
            2750            2844     432.831E-06     432.878E-06
            2747            2844     432.831E-06     432.878E-06
            2749            2844     432.831E-06     432.878E-06
            2746            2844     432.831E-06     432.878E-06
            2751            2845     414.350E-06     421.589E-06
            2748            2845     414.350E-06     421.589E-06
            2747            2845     414.350E-06     421.589E-06
            2750            2845     414.350E-06     421.589E-06
            2749            2846     388.060E-06     392.480E-06
            2750            2846     388.060E-06     392.480E-06
            2752            2846     388.060E-06     392.480E-06
            2753            2846     388.060E-06     392.480E-06
            2750            2847     431.693E-06     439.923E-06
            2753            2847     431.693E-06     439.923E-06
            2754            2847     431.693E-06     439.923E-06
            2751            2847     431.693E-06     439.923E-06
            2753            2848     350.566E-06     354.156E-06
            2755            2848     350.566E-06     354.156E-06
            2752            2848     350.566E-06     354.156E-06
            2756            2848     350.566E-06     354.156E-06
            2754            2849     428.842E-06     433.115E-06
            2757            2849     428.842E-06     433.115E-06
            2753            2849     428.842E-06     433.115E-06
            2756            2849     428.842E-06     433.115E-06
            2756            2850     339.556E-06     344.409E-06
            2759            2850     339.556E-06     344.409E-06
            2758            2850     339.556E-06     344.409E-06
            2755            2850     339.556E-06     344.409E-06
            2757            2851     422.830E-06     423.735E-06
            2759            2851     422.830E-06     423.735E-06
            2756            2851     422.830E-06     423.735E-06
            2760            2851     422.830E-06     423.735E-06
            2759            2852     344.493E-06     347.769E-06
            2762            2852     344.493E-06     347.769E-06
            2761            2852     344.493E-06     347.769E-06
            2758            2852     344.493E-06     347.769E-06
            2759            2853     408.931E-06     408.132E-06
            2760            2853     408.931E-06     408.132E-06
            2762            2853     408.931E-06     408.132E-06
            2763            2853     408.931E-06     408.132E-06
            2823            2894     414.350E-06     421.589E-06
            2820            2894     414.350E-06     421.589E-06
            2819            2894     414.350E-06     421.589E-06
            2822            2894     414.350E-06     421.589E-06
            2823            2895     432.831E-06     432.878E-06
            2821            2895     432.831E-06     432.878E-06
            2820            2895     432.831E-06     432.878E-06
            2824            2895     432.831E-06     432.878E-06
            2826            2896     431.693E-06     439.923E-06
            2823            2896     431.693E-06     439.923E-06
            2825            2896     431.693E-06     439.923E-06
            2822            2896     431.693E-06     439.923E-06
            2826            2897     388.060E-06     392.480E-06
            2824            2897     388.060E-06     392.480E-06
            2823            2897     388.060E-06     392.480E-06
            2827            2897     388.060E-06     392.480E-06
            2825            2898     428.842E-06     433.115E-06
            2828            2898     428.842E-06     433.115E-06
            2826            2898     428.842E-06     433.115E-06
            2829            2898     428.842E-06     433.115E-06
            2826            2899     350.566E-06     354.156E-06
            2829            2899     350.566E-06     354.156E-06
            2830            2899     350.566E-06     354.156E-06
            2827            2899     350.566E-06     354.156E-06
            2832            2900     422.830E-06     423.735E-06
            2831            2900     422.830E-06     423.735E-06
            2829            2900     422.830E-06     423.735E-06
            2828            2900     422.830E-06     423.735E-06
            2832            2901     339.556E-06     344.409E-06
            2833            2901     339.556E-06     344.409E-06
            2829            2901     339.556E-06     344.409E-06
            2830            2901     339.556E-06     344.409E-06
            2834            2902     408.931E-06     408.132E-06
            2835            2902     408.931E-06     408.132E-06
            2832            2902     408.931E-06     408.132E-06
            2831            2902     408.931E-06     408.132E-06
            2836            2903     344.493E-06     347.769E-06
            2835            2903     344.493E-06     347.769E-06
            2832            2903     344.493E-06     347.769E-06
            2833            2903     344.493E-06     347.769E-06
            2837            2904     938.954E-03     939.185E-03
            2840            2904     938.954E-03     939.185E-03
            2838            2904     938.954E-03     939.185E-03
            2841            2904     938.954E-03     939.185E-03
            2842            2905         1.24697         1.24588
            2841            2905         1.24697         1.24588
            2838            2905         1.24697         1.24588
            2839            2905         1.24697         1.24588
            2844            2906     932.173E-03     935.422E-03
            2840            2906     932.173E-03     935.422E-03
            2843            2906     932.173E-03     935.422E-03
            2841            2906     932.173E-03     935.422E-03
            2844            2907         1.20378         1.19480
            2845            2907         1.20378         1.19480
            2841            2907         1.20378         1.19480
            2842            2907         1.20378         1.19480
            2844            2908     884.044E-03     896.591E-03
            2846            2908     884.044E-03     896.591E-03
            2843            2908     884.044E-03     896.591E-03
            2847            2908     884.044E-03     896.591E-03
            2844            2909         1.19256         1.20864
            2845            2909         1.19256         1.20864
            2847            2909         1.19256         1.20864
            2848            2909         1.19256         1.20864
            2846            2910     948.357E-03     946.306E-03
            2847            2910     948.357E-03     946.306E-03
            2849            2910     948.357E-03     946.306E-03
            2850            2910     948.357E-03     946.306E-03
            2847            2911         1.06900         1.06715
            2848            2911         1.06900         1.06715
            2851            2911         1.06900         1.06715
            2850            2911         1.06900         1.06715
            2882            2932         1.02513         1.03415
            2886            2932         1.02513         1.03415
            2885            2932         1.02513         1.03415
            2883            2932         1.02513         1.03415
            2883            2933     833.131E-03     839.492E-03
            2884            2933     833.131E-03     839.492E-03
            2886            2933     833.131E-03     839.492E-03
            2887            2933     833.131E-03     839.492E-03
            2885            2934     916.049E-03     915.381E-03
            2888            2934     916.049E-03     915.381E-03
            2889            2934     916.049E-03     915.381E-03
            2886            2934     916.049E-03     915.381E-03
            2887            2935     887.535E-03     885.952E-03
            2886            2935     887.535E-03     885.952E-03
            2889            2935     887.535E-03     885.952E-03
            2890            2935     887.535E-03     885.952E-03
            2889            2936     896.284E-03     873.180E-03
            2888            2936     896.284E-03     873.180E-03
            2892            2936     896.284E-03     873.180E-03
            2891            2936     896.284E-03     873.180E-03
            2892            2937     834.883E-03     831.986E-03
            2893            2937     834.883E-03     831.986E-03
            2890            2937     834.883E-03     831.986E-03
            2889            2937     834.883E-03     831.986E-03
            2891            2938     932.104E-03     926.146E-03
            2892            2938     932.104E-03     926.146E-03
            2894            2938     932.104E-03     926.146E-03
            2895            2938     932.104E-03     926.146E-03
            2893            2939     815.320E-03     826.965E-03
            2895            2939     815.320E-03     826.965E-03
            2896            2939     815.320E-03     826.965E-03
            2892            2939     815.320E-03     826.965E-03
            2894            2940     841.967E-03     843.891E-03
            2897            2940     841.967E-03     843.891E-03
            2895            2940     841.967E-03     843.891E-03
            2898            2940     841.967E-03     843.891E-03
            2896            2941     855.887E-03     868.949E-03
            2898            2941     855.887E-03     868.949E-03
            2895            2941     855.887E-03     868.949E-03
            2899            2941     855.887E-03     868.949E-03
            2901            2942     750.901E-03     750.647E-03
            2900            2942     750.901E-03     750.647E-03
            2898            2942     750.901E-03     750.647E-03
            2897            2942     750.901E-03     750.647E-03
            2899            2943     846.014E-03     850.291E-03
            2901            2943     846.014E-03     850.291E-03
            2898            2943     846.014E-03     850.291E-03
            2902            2943     846.014E-03     850.291E-03
            2903            2944     692.276E-03     695.468E-03
            2901            2944     692.276E-03     695.468E-03
            2904            2944     692.276E-03     695.468E-03
            2900            2944     692.276E-03     695.468E-03
            2904            2945     830.930E-03     827.844E-03
            2902            2945     830.930E-03     827.844E-03
            2905            2945     830.930E-03     827.844E-03
            2901            2945     830.930E-03     827.844E-03
            2903            2946     662.758E-03     666.536E-03
            2906            2946     662.758E-03     666.536E-03
            2904            2946     662.758E-03     666.536E-03
            2907            2946     662.758E-03     666.536E-03
            2907            2947     816.793E-03     804.573E-03
            2905            2947     816.793E-03     804.573E-03
            2908            2947     816.793E-03     804.573E-03
            2904            2947     816.793E-03     804.573E-03
            2907            2948     659.567E-03     659.220E-03
            2910            2948     659.567E-03     659.220E-03
            2909            2948     659.567E-03     659.220E-03
            2906            2948     659.567E-03     659.220E-03
            2908            2949     788.675E-03     774.990E-03
            2910            2949     788.675E-03     774.990E-03
            2907            2949     788.675E-03     774.990E-03
            2911            2949     788.675E-03     774.990E-03
            2910            2950     527.507E-03     524.406E-03
            2909            2950     527.507E-03     524.406E-03
            2912            2950     527.507E-03     524.406E-03
            2913            2950     527.507E-03     524.406E-03
            2911            2951     582.299E-03     575.744E-03
            2914            2951     582.299E-03     575.744E-03
            2910            2951     582.299E-03     575.744E-03
            2913            2951     582.299E-03     575.744E-03


  Minimum                            275.252E-06     283.016E-06
      At Element                            2833            2833
            Node                             565             565

  Maximum                                1.56583         1.51317
      At Element                            2237            2237
            Node                              20              20

           Total                         856.840         851.914


Field Output reported at element nodes for region: CRJ700-1.Region_3
   Computation algorithm: EXTRAPOLATE_COMPUTE_AVERAGE
   Averaged at nodes
   Averaging regions: ODB_REGIONS

   Element Label      Node Label         S.Mises         S.Mises
                                          @Loc 1          @Loc 2
-----------------------------------------------------------------
               1               1     3.12475E-03     3.52066E-03
            2288               1     3.12475E-03     3.52066E-03
            2273               2     10.7975E-03     11.1084E-03
              16               2     10.7975E-03     11.1084E-03
            1009               3         1.37411         1.42625
             544               3         1.37411         1.42625
             529               4     48.4543E-03     70.3144E-03
             994               4     48.4543E-03     70.3144E-03
            2368               7     155.127E-06     191.663E-06
            2353               9     47.6443E-06     102.842E-06
            1768              16         1.55973         1.67516
            1073              16         1.55973         1.67516
            1058              18     101.487E-03     164.919E-03
            1753              18     101.487E-03     164.919E-03
            1832              21         1.04754         1.09718
            3026              21         1.04754         1.09718
            3011              22     157.797E-03     175.010E-03
            1817              22     157.797E-03     175.010E-03
            2560              28     28.9318E-03     29.7460E-03
            3186              28     28.9318E-03     29.7460E-03
            2545              30     12.7798E-03     13.7136E-03
            3171              30     12.7798E-03     13.7136E-03
            2640              31     47.4694E-06     102.847E-06
            2625              32     154.843E-06     191.321E-06
               2              36     3.17663E-03     3.57886E-03
            2288              36     3.17663E-03     3.57886E-03
            2287              36     3.17663E-03     3.57886E-03
               1              36     3.17663E-03     3.57886E-03
               3              37     3.34403E-03     3.75556E-03
            2287              37     3.34403E-03     3.75556E-03
               2              37     3.34403E-03     3.75556E-03
            2286              37     3.34403E-03     3.75556E-03
            2285              38     3.62818E-03     4.04158E-03
               4              38     3.62818E-03     4.04158E-03
               3              38     3.62818E-03     4.04158E-03
            2286              38     3.62818E-03     4.04158E-03
            2285              39     4.00733E-03     4.41426E-03
               4              39     4.00733E-03     4.41426E-03
            2284              39     4.00733E-03     4.41426E-03
               5              39     4.00733E-03     4.41426E-03
            2284              40     4.45743E-03     4.85311E-03
            2283              40     4.45743E-03     4.85311E-03
               6              40     4.45743E-03     4.85311E-03
               5              40     4.45743E-03     4.85311E-03
            2282              41     4.95906E-03     5.34194E-03
               7              41     4.95906E-03     5.34194E-03
               6              41     4.95906E-03     5.34194E-03
            2283              41     4.95906E-03     5.34194E-03
            2281              42     5.49826E-03     5.86793E-03
            2282              42     5.49826E-03     5.86793E-03
               8              42     5.49826E-03     5.86793E-03
               7              42     5.49826E-03     5.86793E-03
            2281              43     6.06493E-03     6.42215E-03
               8              43     6.06493E-03     6.42215E-03
               9              43     6.06493E-03     6.42215E-03
            2280              43     6.06493E-03     6.42215E-03
              10              44     6.65173E-03     6.99753E-03
               9              44     6.65173E-03     6.99753E-03
            2280              44     6.65173E-03     6.99753E-03
            2279              44     6.65173E-03     6.99753E-03
            2278              45     7.25404E-03     7.58933E-03
            2279              45     7.25404E-03     7.58933E-03
              11              45     7.25404E-03     7.58933E-03
              10              45     7.25404E-03     7.58933E-03
              11              46     7.86737E-03     8.19357E-03
            2277              46     7.86737E-03     8.19357E-03
              12              46     7.86737E-03     8.19357E-03
            2278              46     7.86737E-03     8.19357E-03
              12              47     8.49025E-03     8.80808E-03
              13              47     8.49025E-03     8.80808E-03
            2277              47     8.49025E-03     8.80808E-03
            2276              47     8.49025E-03     8.80808E-03
            2276              48     9.12157E-03     9.43253E-03
              14              48     9.12157E-03     9.43253E-03
            2275              48     9.12157E-03     9.43253E-03
              13              48     9.12157E-03     9.43253E-03
              15              49     9.76508E-03     10.0711E-03
            2275              49     9.76508E-03     10.0711E-03
            2274              49     9.76508E-03     10.0711E-03
              14              49     9.76508E-03     10.0711E-03
            2273              50     10.4447E-03     10.7518E-03
              16              50     10.4447E-03     10.7518E-03
              15              50     10.4447E-03     10.7518E-03
            2274              50     10.4447E-03     10.7518E-03
              32              51     46.1924E-03     55.7367E-03
              16              51     46.1924E-03     55.7367E-03
              48              52     91.5178E-03     100.514E-03
              32              52     91.5178E-03     100.514E-03
              48              53     138.823E-03     135.679E-03
              64              53     138.823E-03     135.679E-03
              80              54     191.783E-03     187.096E-03
              64              54     191.783E-03     187.096E-03
              80              55     239.063E-03     245.738E-03
              96              55     239.063E-03     245.738E-03
              96              56     298.323E-03     295.085E-03
             112              56     298.323E-03     295.085E-03
             128              57     348.495E-03     363.704E-03
             112              57     348.495E-03     363.704E-03
             128              58     331.880E-03     343.219E-03
             144              58     331.880E-03     343.219E-03
             144              59     334.532E-03     323.716E-03
             160              59     334.532E-03     323.716E-03
             160              60     408.485E-03     410.232E-03
             176              60     408.485E-03     410.232E-03
             192              61     470.883E-03     482.305E-03
             176              61     470.883E-03     482.305E-03
             208              62     534.089E-03     534.558E-03
             192              62     534.089E-03     534.558E-03
             224              63     585.862E-03     601.503E-03
             208              63     585.862E-03     601.503E-03
             224              64     568.140E-03     584.328E-03
             240              64     568.140E-03     584.328E-03
             256              65     581.621E-03     566.822E-03
             240              65     581.621E-03     566.822E-03
             272              66     653.566E-03     661.873E-03
             256              66     653.566E-03     661.873E-03
             272              67     723.215E-03     729.206E-03
             288              67     723.215E-03     729.206E-03
             288              68     776.376E-03     794.144E-03
             304              68     776.376E-03     794.144E-03
             320              69     837.215E-03     840.666E-03
             304              69     837.215E-03     840.666E-03
             320              70     883.092E-03     898.540E-03
             336              70     883.092E-03     898.540E-03
             336              71     854.214E-03     877.368E-03
             352              71     854.214E-03     877.368E-03
             368              72     871.128E-03     856.088E-03
             352              72     871.128E-03     856.088E-03
             368              73     947.739E-03     959.181E-03
             384              73     947.739E-03     959.181E-03
             384              74         1.01951         1.03073
             400              74         1.01951         1.03073
             416              75         1.07303         1.09607
             400              75         1.07303         1.09607
             432              76         1.13262         1.13906
             416              76         1.13262         1.13906
             448              77         1.17438         1.18989
             432              77         1.17438         1.18989
             464              78         1.13872         1.16892
             448              78         1.13872         1.16892
             464              79         1.15746         1.14938
             480              79         1.15746         1.14938
             480              80         1.24856         1.25597
             496              80         1.24856         1.25597
             496              81         1.31169         1.34669
             512              81         1.31169         1.34669
             528              82         1.37694         1.38269
             512              82         1.37694         1.38269
             528              83         1.41347         1.43281
             544              83         1.41347         1.43281
            1009              84         1.29553         1.33861
             543              84         1.29553         1.33861
            1008              84         1.29553         1.33861
             544              84         1.29553         1.33861
             542              85         1.17207         1.20318
            1007              85         1.17207         1.20318
            1008              85         1.17207         1.20318
             543              85         1.17207         1.20318
            1007              86         1.08067         1.11249
             542              86         1.08067         1.11249
            1006              86         1.08067         1.11249
             541              86         1.08067         1.11249
            1005              87     993.473E-03         1.02830
            1006              87     993.473E-03         1.02830
             540              87     993.473E-03         1.02830
             541              87     993.473E-03         1.02830
            1005              88     910.363E-03     946.511E-03
            1004              88     910.363E-03     946.511E-03
             539              88     910.363E-03     946.511E-03
             540              88     910.363E-03     946.511E-03
             538              89     827.204E-03     864.598E-03
            1004              89     827.204E-03     864.598E-03
             539              89     827.204E-03     864.598E-03
            1003              89     827.204E-03     864.598E-03
            1002              90     744.433E-03     782.002E-03
             538              90     744.433E-03     782.002E-03
             537              90     744.433E-03     782.002E-03
            1003              90     744.433E-03     782.002E-03
             536              91     660.992E-03     698.909E-03
            1002              91     660.992E-03     698.909E-03
             537              91     660.992E-03     698.909E-03
            1001              91     660.992E-03     698.909E-03
            1000              92     577.383E-03     615.269E-03
            1001              92     577.383E-03     615.269E-03
             535              92     577.383E-03     615.269E-03
             536              92     577.383E-03     615.269E-03
            1000              93     493.278E-03     531.386E-03
             999              93     493.278E-03     531.386E-03
             534              93     493.278E-03     531.386E-03
             535              93     493.278E-03     531.386E-03
             998              94     409.199E-03     447.264E-03
             534              94     409.199E-03     447.264E-03
             533              94     409.199E-03     447.264E-03
             999              94     409.199E-03     447.264E-03
             532              95     325.202E-03     362.885E-03
             997              95     325.202E-03     362.885E-03
             533              95     325.202E-03     362.885E-03
             998              95     325.202E-03     362.885E-03
             997              96     241.893E-03     278.247E-03
             996              96     241.893E-03     278.247E-03
             531              96     241.893E-03     278.247E-03
             532              96     241.893E-03     278.247E-03
             530              97     160.455E-03     193.558E-03
             531              97     160.455E-03     193.558E-03
             995              97     160.455E-03     193.558E-03
             996              97     160.455E-03     193.558E-03
             530              98     84.4925E-03     110.697E-03
             994              98     84.4925E-03     110.697E-03
             529              98     84.4925E-03     110.697E-03
             995              98     84.4925E-03     110.697E-03
             513              99     35.0775E-03     74.3187E-03
             529              99     35.0775E-03     74.3187E-03
             513             100     39.1181E-03     79.5657E-03
             497             100     39.1181E-03     79.5657E-03
             481             101     85.9657E-03     91.8835E-03
             497             101     85.9657E-03     91.8835E-03
             481             102     134.166E-03     145.396E-03
             465             102     134.166E-03     145.396E-03
             465             103     168.899E-03     206.049E-03
             449             103     168.899E-03     206.049E-03
             449             104     110.002E-03     139.814E-03
             433             104     110.002E-03     139.814E-03
             433             105     26.1108E-03     57.7113E-03
             417             105     26.1108E-03     57.7113E-03
             417             106     34.1641E-03     56.8324E-03
             401             106     34.1641E-03     56.8324E-03
             401             107     68.8839E-03     76.7482E-03
             385             107     68.8839E-03     76.7482E-03
             385             108     104.089E-03     104.092E-03
             369             108     104.089E-03     104.092E-03
             353             109     141.966E-03     149.147E-03
             369             109     141.966E-03     149.147E-03
             337             110     166.410E-03     199.373E-03
             353             110     166.410E-03     199.373E-03
             337             111     93.9142E-03     123.437E-03
             321             111     93.9142E-03     123.437E-03
             321             112     22.1814E-03     38.1742E-03
             305             112     22.1814E-03     38.1742E-03
             289             113     45.4286E-03     48.7103E-03
             305             113     45.4286E-03     48.7103E-03
             289             114     71.9503E-03     71.4687E-03
             273             114     71.9503E-03     71.4687E-03
             257             115     97.6560E-03     93.0246E-03
             273             115     97.6560E-03     93.0246E-03
             257             116     124.853E-03     126.760E-03
             241             116     124.853E-03     126.760E-03
             241             117     140.234E-03     165.454E-03
             225             117     140.234E-03     165.454E-03
             225             118     85.8300E-03     109.247E-03
             209             118     85.8300E-03     109.247E-03
             209             119     42.2593E-03     44.7841E-03
             193             119     42.2593E-03     44.7841E-03
             177             120     63.7862E-03     57.7773E-03
             193             120     63.7862E-03     57.7773E-03
             161             121     81.3304E-03     71.9928E-03
             177             121     81.3304E-03     71.9928E-03
             145             122     99.1883E-03     94.8204E-03
             161             122     99.1883E-03     94.8204E-03
             145             123     107.131E-03     122.158E-03
             129             123     107.131E-03     122.158E-03
             113             124     78.8346E-03     96.5060E-03
             129             124     78.8346E-03     96.5060E-03
              97             125     59.3393E-03     64.6147E-03
             113             125     59.3393E-03     64.6147E-03
              97             126     72.8511E-03     64.1325E-03
              81             126     72.8511E-03     64.1325E-03
              65             127     79.5921E-03     70.6689E-03
              81             127     79.5921E-03     70.6689E-03
              49             128     86.3237E-03     76.8339E-03
              65             128     86.3237E-03     76.8339E-03
              49             129     93.5443E-03     87.4007E-03
              33             129     93.5443E-03     87.4007E-03
              17             130     91.9135E-03     103.890E-03
              33             130     91.9135E-03     103.890E-03
              17             131     46.9753E-03     57.2262E-03
               1             131     46.9753E-03     57.2262E-03
            2352             167     167.689E-06     183.189E-06
            2368             167     167.689E-06     183.189E-06
            2336             168     176.728E-06     161.853E-06
            2352             168     176.728E-06     161.853E-06
            2320             169     169.767E-06     147.862E-06
            2336             169     169.767E-06     147.862E-06
            2304             170     164.432E-06     148.228E-06
            2320             170     164.432E-06     148.228E-06
            2304             171     145.013E-06     154.999E-06
            2288             171     145.013E-06     154.999E-06
            2289             176     330.714E-06     347.722E-06
            2273             176     330.714E-06     347.722E-06
            2305             177     250.592E-06     248.871E-06
            2289             177     250.592E-06     248.871E-06
            2321             178     166.192E-06     168.438E-06
            2305             178     166.192E-06     168.438E-06
            2337             179     90.7798E-06     85.0228E-06
            2321             179     90.7798E-06     85.0228E-06
            2337             180     45.3393E-06     77.0169E-06
            2353             180     45.3393E-06     77.0169E-06
            1025             314         1.36806         1.37697
            1009             314         1.36806         1.37697
            1025             315         1.44715         1.45762
            1041             315         1.44715         1.45762
            1057             316         1.55394         1.55931
            1041             316         1.55394         1.55931
            1073             317         1.60213         1.63527
            1057             317         1.60213         1.63527
            1768             324         1.44154         1.55652
            1073             324         1.44154         1.55652
            1767             324         1.44154         1.55652
            1072             324         1.44154         1.55652
            1072             325         1.29002         1.39527
            1071             325         1.29002         1.39527
            1766             325         1.29002         1.39527
            1767             325         1.29002         1.39527
            1766             326         1.20247         1.30850
            1071             326         1.20247         1.30850
            1070             326         1.20247         1.30850
            1765             326         1.20247         1.30850
            1070             327         1.10627         1.21630
            1764             327         1.10627         1.21630
            1765             327         1.10627         1.21630
            1069             327         1.10627         1.21630
            1069             328         1.01502         1.12422
            1764             328         1.01502         1.12422
            1068             328         1.01502         1.12422
            1763             328         1.01502         1.12422
            1068             329     920.747E-03         1.03212
            1067             329     920.747E-03         1.03212
            1762             329     920.747E-03         1.03212
            1763             329     920.747E-03         1.03212
            1067             330     827.491E-03     938.221E-03
            1762             330     827.491E-03     938.221E-03
            1761             330     827.491E-03     938.221E-03
            1066             330     827.491E-03     938.221E-03
            1066             331     732.819E-03     844.725E-03
            1760             331     732.819E-03     844.725E-03
            1065             331     732.819E-03     844.725E-03
            1761             331     732.819E-03     844.725E-03
            1760             332     638.716E-03     750.501E-03
            1759             332     638.716E-03     750.501E-03
            1064             332     638.716E-03     750.501E-03
            1065             332     638.716E-03     750.501E-03
            1064             333     544.209E-03     656.545E-03
            1063             333     544.209E-03     656.545E-03
            1758             333     544.209E-03     656.545E-03
            1759             333     544.209E-03     656.545E-03
            1757             334     450.246E-03     562.581E-03
            1758             334     450.246E-03     562.581E-03
            1062             334     450.246E-03     562.581E-03
            1063             334     450.246E-03     562.581E-03
            1757             335     356.604E-03     469.016E-03
            1756             335     356.604E-03     469.016E-03
            1061             335     356.604E-03     469.016E-03
            1062             335     356.604E-03     469.016E-03
            1755             336     265.934E-03     376.216E-03
            1756             336     265.934E-03     376.216E-03
            1061             336     265.934E-03     376.216E-03
            1060             336     265.934E-03     376.216E-03
            1060             337     181.202E-03     284.030E-03
            1755             337     181.202E-03     284.030E-03
            1059             337     181.202E-03     284.030E-03
            1754             337     181.202E-03     284.030E-03
            1753             338     121.062E-03     201.285E-03
            1059             338     121.062E-03     201.285E-03
            1754             338     121.062E-03     201.285E-03
            1058             338     121.062E-03     201.285E-03
            1042             339     84.1865E-03     117.428E-03
            1058             339     84.1865E-03     117.428E-03
            1042             340     119.399E-03     143.047E-03
            1026             340     119.399E-03     143.047E-03
            1026             341     157.791E-03     192.666E-03
            1010             341     157.791E-03     192.666E-03
             994             342     108.651E-03     135.154E-03
            1010             342     108.651E-03     135.154E-03
            1768             393         1.44961         1.47199
            1784             393         1.44961         1.47199
            1800             394         1.38135         1.40134
            1784             394         1.38135         1.40134
            1816             395         1.32686         1.37832
            1800             395         1.32686         1.37832
            1832             396         1.15076         1.10772
            1816             396         1.15076         1.10772
            1832             397         1.01455         1.05230
            3026             397         1.01455         1.05230
            1831             397         1.01455         1.05230
            3025             397         1.01455         1.05230
            3024             398     962.968E-03     986.100E-03
            1830             398     962.968E-03     986.100E-03
            1831             398     962.968E-03     986.100E-03
            3025             398     962.968E-03     986.100E-03
            3023             399     908.862E-03     930.874E-03
            1830             399     908.862E-03     930.874E-03
            3024             399     908.862E-03     930.874E-03
            1829             399     908.862E-03     930.874E-03
            3022             400     841.789E-03     865.979E-03
            3023             400     841.789E-03     865.979E-03
            1828             400     841.789E-03     865.979E-03
            1829             400     841.789E-03     865.979E-03
            3021             401     776.780E-03     801.157E-03
            1828             401     776.780E-03     801.157E-03
            3022             401     776.780E-03     801.157E-03
            1827             401     776.780E-03     801.157E-03
            3021             402     710.395E-03     734.695E-03
            1826             402     710.395E-03     734.695E-03
            3020             402     710.395E-03     734.695E-03
            1827             402     710.395E-03     734.695E-03
            3019             403     644.310E-03     668.643E-03
            3020             403     644.310E-03     668.643E-03
            1825             403     644.310E-03     668.643E-03
            1826             403     644.310E-03     668.643E-03
            1825             404     578.120E-03     602.447E-03
            3018             404     578.120E-03     602.447E-03
            3019             404     578.120E-03     602.447E-03
            1824             404     578.120E-03     602.447E-03
            1824             405     512.511E-03     536.873E-03
            3018             405     512.511E-03     536.873E-03
            3017             405     512.511E-03     536.873E-03
            1823             405     512.511E-03     536.873E-03
            1823             406     447.686E-03     472.012E-03
            1822             406     447.686E-03     472.012E-03
            3016             406     447.686E-03     472.012E-03
            3017             406     447.686E-03     472.012E-03
            3015             407     384.288E-03     408.483E-03
            1822             407     384.288E-03     408.483E-03
            1821             407     384.288E-03     408.483E-03
            3016             407     384.288E-03     408.483E-03
            3015             408     323.075E-03     346.976E-03
            3014             408     323.075E-03     346.976E-03
            1821             408     323.075E-03     346.976E-03
            1820             408     323.075E-03     346.976E-03
            1820             409     265.568E-03     289.613E-03
            3013             409     265.568E-03     289.613E-03
            3014             409     265.568E-03     289.613E-03
            1819             409     265.568E-03     289.613E-03
            3012             410     217.754E-03     240.506E-03
            3013             410     217.754E-03     240.506E-03
            1818             410     217.754E-03     240.506E-03
            1819             410     217.754E-03     240.506E-03
            1817             411     177.586E-03     196.866E-03
            1818             411     177.586E-03     196.866E-03
            3011             411     177.586E-03     196.866E-03
            3012             411     177.586E-03     196.866E-03
            1801             412     201.775E-03     207.282E-03
            1817             412     201.775E-03     207.282E-03
            1801             413     146.085E-03     173.901E-03
            1785             413     146.085E-03     173.901E-03
            1785             414     152.812E-03     157.908E-03
            1769             414     152.812E-03     157.908E-03
            1769             415     169.049E-03     187.201E-03
            1753             415     169.049E-03     187.201E-03
            3042             470         1.00710         1.06005
            3026             470         1.00710         1.06005
            3042             471     849.056E-03     797.985E-03
            3058             471     849.056E-03     797.985E-03
            3074             472     804.834E-03     840.688E-03
            3058             472     804.834E-03     840.688E-03
            3090             473     836.869E-03     875.313E-03
            3074             473     836.869E-03     875.313E-03
            3106             474     719.326E-03     710.620E-03
            3090             474     719.326E-03     710.620E-03
            3106             475     578.872E-03     594.453E-03
            3122             475     578.872E-03     594.453E-03
            3138             476     467.866E-03     455.888E-03
            3122             476     467.866E-03     455.888E-03
            3138             477     343.901E-03     335.071E-03
            3154             477     343.901E-03     335.071E-03
            3170             478     232.775E-03     254.156E-03
            3154             478     232.775E-03     254.156E-03
            3186             479     120.958E-03     144.515E-03
            3170             479     120.958E-03     144.515E-03
            2367             492     165.173E-06     185.160E-06
            2368             492     165.173E-06     185.160E-06
            2366             493     178.024E-06     176.526E-06
            2367             493     178.024E-06     176.526E-06
            2366             494     182.001E-06     174.817E-06
            2365             494     182.001E-06     174.817E-06
            2364             495     185.504E-06     175.512E-06
            2365             495     185.504E-06     175.512E-06
            2363             496     188.893E-06     176.293E-06
            2364             496     188.893E-06     176.293E-06
            2362             497     192.230E-06     177.976E-06
            2363             497     192.230E-06     177.976E-06
            2361             498     195.609E-06     179.467E-06
            2362             498     195.609E-06     179.467E-06
            2361             499     199.162E-06     181.521E-06
            2360             499     199.162E-06     181.521E-06
            2359             500     201.729E-06     182.837E-06
            2360             500     201.729E-06     182.837E-06
            2358             501     204.001E-06     183.476E-06
            2359             501     204.001E-06     183.476E-06
            2358             502     202.213E-06     181.136E-06
            2357             502     202.213E-06     181.136E-06
            2356             503     196.335E-06     172.926E-06
            2357             503     196.335E-06     172.926E-06
            2355             504     177.106E-06     152.519E-06
            2356             504     177.106E-06     152.519E-06
            2354             505     143.997E-06     115.202E-06
            2355             505     143.997E-06     115.202E-06
            2353             506     87.9145E-06     98.1629E-06
            2354             506     87.9145E-06     98.1629E-06
            3027             522     148.447E-03     167.247E-03
            3011             522     148.447E-03     167.247E-03
            3043             523     189.119E-03     188.785E-03
            3027             523     189.119E-03     188.785E-03
            3059             524     149.660E-03     171.475E-03
            3043             524     149.660E-03     171.475E-03
            3059             525     137.379E-03     158.066E-03
            3075             525     137.379E-03     158.066E-03
            3091             526     174.834E-03     154.044E-03
            3075             526     174.834E-03     154.044E-03
            3091             527     190.210E-03     169.271E-03
            3107             527     190.210E-03     169.271E-03
            3107             528     206.191E-03     182.854E-03
            3123             528     206.191E-03     182.854E-03
            3139             529     222.756E-03     207.416E-03
            3123             529     222.756E-03     207.416E-03
            3155             530     215.901E-03     246.663E-03
            3139             530     215.901E-03     246.663E-03
            3171             531     114.630E-03     141.373E-03
            3155             531     114.630E-03     141.373E-03
            3171             547     12.8508E-03     13.8009E-03
            3172             547     12.8508E-03     13.8009E-03
            2545             547     12.8508E-03     13.8009E-03
            2546             547     12.8508E-03     13.8009E-03
            3172             548     13.1012E-03     14.0802E-03
            3173             548     13.1012E-03     14.0802E-03
            2546             548     13.1012E-03     14.0802E-03
            2547             548     13.1012E-03     14.0802E-03
            3173             549     13.5609E-03     14.5594E-03
            2548             549     13.5609E-03     14.5594E-03
            2547             549     13.5609E-03     14.5594E-03
            3174             549     13.5609E-03     14.5594E-03
            2549             550     14.2133E-03     15.2180E-03
            3175             550     14.2133E-03     15.2180E-03
            2548             550     14.2133E-03     15.2180E-03
            3174             550     14.2133E-03     15.2180E-03
            3176             551     15.0335E-03     16.0334E-03
            2549             551     15.0335E-03     16.0334E-03
            2550             551     15.0335E-03     16.0334E-03
            3175             551     15.0335E-03     16.0334E-03
            2551             552     15.9960E-03     16.9834E-03
            3177             552     15.9960E-03     16.9834E-03
            3176             552     15.9960E-03     16.9834E-03
            2550             552     15.9960E-03     16.9834E-03
            3177             553     17.0770E-03     18.0464E-03
            2551             553     17.0770E-03     18.0464E-03
            3178             553     17.0770E-03     18.0464E-03
            2552             553     17.0770E-03     18.0464E-03
            3178             554     18.2553E-03     19.2041E-03
            2552             554     18.2553E-03     19.2041E-03
            3179             554     18.2553E-03     19.2041E-03
            2553             554     18.2553E-03     19.2041E-03
            2553             555     19.5132E-03     20.4401E-03
            3180             555     19.5132E-03     20.4401E-03
            2554             555     19.5132E-03     20.4401E-03
            3179             555     19.5132E-03     20.4401E-03
            3181             556     20.8365E-03     21.7410E-03
            2554             556     20.8365E-03     21.7410E-03
            2555             556     20.8365E-03     21.7410E-03
            3180             556     20.8365E-03     21.7410E-03
            3182             557     22.2125E-03     23.0955E-03
            2556             557     22.2125E-03     23.0955E-03
            2555             557     22.2125E-03     23.0955E-03
            3181             557     22.2125E-03     23.0955E-03
            2557             558     23.6330E-03     24.4951E-03
            3182             558     23.6330E-03     24.4951E-03
            2556             558     23.6330E-03     24.4951E-03
            3183             558     23.6330E-03     24.4951E-03
            3184             559     25.0912E-03     25.9341E-03
            3183             559     25.0912E-03     25.9341E-03
            2557             559     25.0912E-03     25.9341E-03
            2558             559     25.0912E-03     25.9341E-03
            2559             560     26.5861E-03     27.4123E-03
            3184             560     26.5861E-03     27.4123E-03
            3185             560     26.5861E-03     27.4123E-03
            2558             560     26.5861E-03     27.4123E-03
            3186             561     28.1380E-03     28.9540E-03
            2559             561     28.1380E-03     28.9540E-03
            2560             561     28.1380E-03     28.9540E-03
            3185             561     28.1380E-03     28.9540E-03
            2560             562     328.773E-06     345.900E-06
            2576             562     328.773E-06     345.900E-06
            2576             563     249.046E-06     247.304E-06
            2592             563     249.046E-06     247.304E-06
            2608             564     164.918E-06     167.155E-06
            2592             564     164.918E-06     167.155E-06
            2624             565     89.7259E-06     84.0537E-06
            2608             565     89.7259E-06     84.0537E-06
            2640             566     44.7854E-06     76.6045E-06
            2624             566     44.7854E-06     76.6045E-06
            2640             567     88.0426E-06     98.3803E-06
            2639             567     88.0426E-06     98.3803E-06
            2639             568     144.263E-06     115.496E-06
            2638             568     144.263E-06     115.496E-06
            2638             569     177.137E-06     152.558E-06
            2637             569     177.137E-06     152.558E-06
            2636             570     196.201E-06     172.772E-06
            2637             570     196.201E-06     172.772E-06
            2635             571     201.941E-06     180.834E-06
            2636             571     201.941E-06     180.834E-06
            2635             572     203.642E-06     183.081E-06
            2634             572     203.642E-06     183.081E-06
            2634             573     201.333E-06     182.410E-06
            2633             573     201.333E-06     182.410E-06
            2632             574     198.759E-06     181.086E-06
            2633             574     198.759E-06     181.086E-06
            2632             575     195.216E-06     179.044E-06
            2631             575     195.216E-06     179.044E-06
            2631             576     191.854E-06     177.574E-06
            2630             576     191.854E-06     177.574E-06
            2629             577     188.535E-06     175.914E-06
            2630             577     188.535E-06     175.914E-06
            2629             578     185.171E-06     175.151E-06
            2628             578     185.171E-06     175.151E-06
            2628             579     181.685E-06     174.465E-06
            2627             579     181.685E-06     174.465E-06
            2627             580     177.739E-06     176.167E-06
            2626             580     177.739E-06     176.167E-06
            2625             581     164.899E-06     184.806E-06
            2626             581     164.899E-06     184.806E-06
            2609             582     167.393E-06     182.911E-06
            2625             582     167.393E-06     182.911E-06
            2593             583     176.519E-06     161.637E-06
            2609             583     176.519E-06     161.637E-06
            2593             584     169.692E-06     147.647E-06
            2577             584     169.692E-06     147.647E-06
            2577             585     164.378E-06     148.161E-06
            2561             585     164.378E-06     148.161E-06
            2545             586     144.997E-06     155.068E-06
            2561             586     144.997E-06     155.068E-06
               1             635     50.3001E-03     55.9907E-03
              17             635     50.3001E-03     55.9907E-03
              18             635     50.3001E-03     55.9907E-03
               2             635     50.3001E-03     55.9907E-03
              19             636     54.9763E-03     54.2259E-03
               2             636     54.9763E-03     54.2259E-03
              18             636     54.9763E-03     54.2259E-03
               3             636     54.9763E-03     54.2259E-03
               3             637     57.8902E-03     54.8502E-03
               4             637     57.8902E-03     54.8502E-03
              20             637     57.8902E-03     54.8502E-03
              19             637     57.8902E-03     54.8502E-03
               4             638     61.0688E-03     56.8891E-03
              21             638     61.0688E-03     56.8891E-03
              20             638     61.0688E-03     56.8891E-03
               5             638     61.0688E-03     56.8891E-03
              22             639     64.5276E-03     59.2999E-03
               5             639     64.5276E-03     59.2999E-03
               6             639     64.5276E-03     59.2999E-03
              21             639     64.5276E-03     59.2999E-03
              22             640     68.3072E-03     62.2381E-03
              23             640     68.3072E-03     62.2381E-03
               7             640     68.3072E-03     62.2381E-03
               6             640     68.3072E-03     62.2381E-03
               8             641     72.2346E-03     65.4483E-03
              24             641     72.2346E-03     65.4483E-03
              23             641     72.2346E-03     65.4483E-03
               7             641     72.2346E-03     65.4483E-03
              25             642     76.2092E-03     68.7247E-03
              24             642     76.2092E-03     68.7247E-03
               9             642     76.2092E-03     68.7247E-03
               8             642     76.2092E-03     68.7247E-03
              25             643     79.9518E-03     71.8553E-03
              10             643     79.9518E-03     71.8553E-03
              26             643     79.9518E-03     71.8553E-03
               9             643     79.9518E-03     71.8553E-03
              11             644     83.1829E-03     74.4338E-03
              27             644     83.1829E-03     74.4338E-03
              26             644     83.1829E-03     74.4338E-03
              10             644     83.1829E-03     74.4338E-03
              28             645     85.0114E-03     75.5581E-03
              27             645     85.0114E-03     75.5581E-03
              11             645     85.0114E-03     75.5581E-03
              12             645     85.0114E-03     75.5581E-03
              28             646     85.0266E-03     74.5856E-03
              29             646     85.0266E-03     74.5856E-03
              12             646     85.0266E-03     74.5856E-03
              13             646     85.0266E-03     74.5856E-03
              30             647     80.4154E-03     68.7099E-03
              13             647     80.4154E-03     68.7099E-03
              14             647     80.4154E-03     68.7099E-03
              29             647     80.4154E-03     68.7099E-03
              14             648     70.6345E-03     56.9682E-03
              30             648     70.6345E-03     56.9682E-03
              15             648     70.6345E-03     56.9682E-03
              31             648     70.6345E-03     56.9682E-03
              31             649     55.6582E-03     52.8343E-03
              16             649     55.6582E-03     52.8343E-03
              15             649     55.6582E-03     52.8343E-03
              32             649     55.6582E-03     52.8343E-03
              34             650     93.8637E-03     101.807E-03
              17             650     93.8637E-03     101.807E-03
              33             650     93.8637E-03     101.807E-03
              18             650     93.8637E-03     101.807E-03
              35             651     98.7037E-03     99.0006E-03
              19             651     98.7037E-03     99.0006E-03
              34             651     98.7037E-03     99.0006E-03
              18             651     98.7037E-03     99.0006E-03
              36             652     104.552E-03     99.5632E-03
              19             652     104.552E-03     99.5632E-03
              20             652     104.552E-03     99.5632E-03
              35             652     104.552E-03     99.5632E-03
              20             653     110.362E-03     102.822E-03
              21             653     110.362E-03     102.822E-03
              36             653     110.362E-03     102.822E-03
              37             653     110.362E-03     102.822E-03
              37             654     116.624E-03     107.334E-03
              21             654     116.624E-03     107.334E-03
              38             654     116.624E-03     107.334E-03
              22             654     116.624E-03     107.334E-03
              23             655     123.480E-03     112.834E-03
              39             655     123.480E-03     112.834E-03
              22             655     123.480E-03     112.834E-03
              38             655     123.480E-03     112.834E-03
              40             656     130.725E-03     118.941E-03
              24             656     130.725E-03     118.941E-03
              23             656     130.725E-03     118.941E-03
              39             656     130.725E-03     118.941E-03
              41             657     138.266E-03     125.420E-03
              25             657     138.266E-03     125.420E-03
              24             657     138.266E-03     125.420E-03
              40             657     138.266E-03     125.420E-03
              25             658     145.647E-03     131.903E-03
              42             658     145.647E-03     131.903E-03
              41             658     145.647E-03     131.903E-03
              26             658     145.647E-03     131.903E-03
              26             659     152.440E-03     137.648E-03
              42             659     152.440E-03     137.648E-03
              43             659     152.440E-03     137.648E-03
              27             659     152.440E-03     137.648E-03
              27             660     157.381E-03     141.662E-03
              28             660     157.381E-03     141.662E-03
              44             660     157.381E-03     141.662E-03
              43             660     157.381E-03     141.662E-03
              29             661     158.156E-03     141.315E-03
              45             661     158.156E-03     141.315E-03
              28             661     158.156E-03     141.315E-03
              44             661     158.156E-03     141.315E-03
              46             662     151.543E-03     133.171E-03
              30             662     151.543E-03     133.171E-03
              45             662     151.543E-03     133.171E-03
              29             662     151.543E-03     133.171E-03
              31             663     127.577E-03     109.423E-03
              47             663     127.577E-03     109.423E-03
              46             663     127.577E-03     109.423E-03
              30             663     127.577E-03     109.423E-03
              31             664     100.364E-03     96.2841E-03
              48             664     100.364E-03     96.2841E-03
              47             664     100.364E-03     96.2841E-03
              32             664     100.364E-03     96.2841E-03
              49             665     92.1263E-03     90.0102E-03
              34             665     92.1263E-03     90.0102E-03
              33             665     92.1263E-03     90.0102E-03
              50             665     92.1263E-03     90.0102E-03
              51             666     92.2110E-03     93.1042E-03
              50             666     92.2110E-03     93.1042E-03
              35             666     92.2110E-03     93.1042E-03
              34             666     92.2110E-03     93.1042E-03
              52             667     96.7271E-03     94.8430E-03
              35             667     96.7271E-03     94.8430E-03
              36             667     96.7271E-03     94.8430E-03
              51             667     96.7271E-03     94.8430E-03
              37             668     102.799E-03     98.6825E-03
              53             668     102.799E-03     98.6825E-03
              52             668     102.799E-03     98.6825E-03
              36             668     102.799E-03     98.6825E-03
              38             669     109.360E-03     104.300E-03
              54             669     109.360E-03     104.300E-03
              37             669     109.360E-03     104.300E-03
              53             669     109.360E-03     104.300E-03
              54             670     116.804E-03     110.927E-03
              39             670     116.804E-03     110.927E-03
              38             670     116.804E-03     110.927E-03
              55             670     116.804E-03     110.927E-03
              40             671     124.965E-03     118.517E-03
              39             671     124.965E-03     118.517E-03
              55             671     124.965E-03     118.517E-03
              56             671     124.965E-03     118.517E-03
              56             672     133.736E-03     126.809E-03
              40             672     133.736E-03     126.809E-03
              57             672     133.736E-03     126.809E-03
              41             672     133.736E-03     126.809E-03
              42             673     143.055E-03     135.690E-03
              57             673     143.055E-03     135.690E-03
              58             673     143.055E-03     135.690E-03
              41             673     143.055E-03     135.690E-03
              42             674     152.369E-03     144.659E-03
              43             674     152.369E-03     144.659E-03
              58             674     152.369E-03     144.659E-03
              59             674     152.369E-03     144.659E-03
              59             675     161.209E-03     153.118E-03
              43             675     161.209E-03     153.118E-03
              60             675     161.209E-03     153.118E-03
              44             675     161.209E-03     153.118E-03
              45             676     166.470E-03     158.595E-03
              60             676     166.470E-03     158.595E-03
              61             676     166.470E-03     158.595E-03
              44             676     166.470E-03     158.595E-03
              45             677     163.968E-03     157.239E-03
              46             677     163.968E-03     157.239E-03
              62             677     163.968E-03     157.239E-03
              61             677     163.968E-03     157.239E-03
              46             678     142.494E-03     139.602E-03
              47             678     142.494E-03     139.602E-03
              63             678     142.494E-03     139.602E-03
              62             678     142.494E-03     139.602E-03
              47             679     131.656E-03     130.201E-03
              48             679     131.656E-03     130.201E-03
              63             679     131.656E-03     130.201E-03
              64             679     131.656E-03     130.201E-03
              66             680     86.6387E-03     79.1825E-03
              49             680     86.6387E-03     79.1825E-03
              65             680     86.6387E-03     79.1825E-03
              50             680     86.6387E-03     79.1825E-03
              67             681     87.5132E-03     84.4424E-03
              66             681     87.5132E-03     84.4424E-03
              51             681     87.5132E-03     84.4424E-03
              50             681     87.5132E-03     84.4424E-03
              68             682     90.1027E-03     89.7925E-03
              52             682     90.1027E-03     89.7925E-03
              67             682     90.1027E-03     89.7925E-03
              51             682     90.1027E-03     89.7925E-03
              52             683     95.3169E-03     95.2008E-03
              68             683     95.3169E-03     95.2008E-03
              53             683     95.3169E-03     95.2008E-03
              69             683     95.3169E-03     95.2008E-03
              54             684     102.178E-03     101.793E-03
              69             684     102.178E-03     101.793E-03
              53             684     102.178E-03     101.793E-03
              70             684     102.178E-03     101.793E-03
              71             685     110.058E-03     109.542E-03
              54             685     110.058E-03     109.542E-03
              70             685     110.058E-03     109.542E-03
              55             685     110.058E-03     109.542E-03
              55             686     118.881E-03     118.282E-03
              72             686     118.881E-03     118.282E-03
              56             686     118.881E-03     118.282E-03
              71             686     118.881E-03     118.282E-03
              57             687     128.528E-03     127.916E-03
              56             687     128.528E-03     127.916E-03
              72             687     128.528E-03     127.916E-03
              73             687     128.528E-03     127.916E-03
              74             688     138.883E-03     138.272E-03
              58             688     138.883E-03     138.272E-03
              57             688     138.883E-03     138.272E-03
              73             688     138.883E-03     138.272E-03
              74             689     149.874E-03     149.330E-03
              75             689     149.874E-03     149.330E-03
              59             689     149.874E-03     149.330E-03
              58             689     149.874E-03     149.330E-03
              76             690     160.370E-03     160.140E-03
              75             690     160.370E-03     160.140E-03
              60             690     160.370E-03     160.140E-03
              59             690     160.370E-03     160.140E-03
              61             691     169.934E-03     169.998E-03
              76             691     169.934E-03     169.998E-03
              77             691     169.934E-03     169.998E-03
              60             691     169.934E-03     169.998E-03
              78             692     171.795E-03     174.281E-03
              62             692     171.795E-03     174.281E-03
              61             692     171.795E-03     174.281E-03
              77             692     171.795E-03     174.281E-03
              62             693     164.722E-03     169.827E-03
              78             693     164.722E-03     169.827E-03
              63             693     164.722E-03     169.827E-03
              79             693     164.722E-03     169.827E-03
              63             694     176.152E-03     176.477E-03
              80             694     176.152E-03     176.477E-03
              64             694     176.152E-03     176.477E-03
              79             694     176.152E-03     176.477E-03
              65             695     79.8377E-03     72.4331E-03
              82             695     79.8377E-03     72.4331E-03
              81             695     79.8377E-03     72.4331E-03
              66             695     79.8377E-03     72.4331E-03
              82             696     80.6785E-03     77.8333E-03
              66             696     80.6785E-03     77.8333E-03
              67             696     80.6785E-03     77.8333E-03
              83             696     80.6785E-03     77.8333E-03
              67             697     83.0029E-03     84.9910E-03
              84             697     83.0029E-03     84.9910E-03
              68             697     83.0029E-03     84.9910E-03
              83             697     83.0029E-03     84.9910E-03
              84             698     87.8217E-03     91.9584E-03
              85             698     87.8217E-03     91.9584E-03
              68             698     87.8217E-03     91.9584E-03
              69             698     87.8217E-03     91.9584E-03
              85             699     94.7622E-03     99.5175E-03
              70             699     94.7622E-03     99.5175E-03
              86             699     94.7622E-03     99.5175E-03
              69             699     94.7622E-03     99.5175E-03
              87             700     102.919E-03     108.188E-03
              86             700     102.919E-03     108.188E-03
              71             700     102.919E-03     108.188E-03
              70             700     102.919E-03     108.188E-03
              72             701     112.030E-03     117.675E-03
              71             701     112.030E-03     117.675E-03
              87             701     112.030E-03     117.675E-03
              88             701     112.030E-03     117.675E-03
              88             702     121.995E-03     127.948E-03
              89             702     121.995E-03     127.948E-03
              73             702     121.995E-03     127.948E-03
              72             702     121.995E-03     127.948E-03
              73             703     132.635E-03     138.916E-03
              89             703     132.635E-03     138.916E-03
              90             703     132.635E-03     138.916E-03
              74             703     132.635E-03     138.916E-03
              90             704     143.843E-03     150.435E-03
              91             704     143.843E-03     150.435E-03
              74             704     143.843E-03     150.435E-03
              75             704     143.843E-03     150.435E-03
              75             705     155.438E-03     162.537E-03
              92             705     155.438E-03     162.537E-03
              76             705     155.438E-03     162.537E-03
              91             705     155.438E-03     162.537E-03
              92             706     166.453E-03     174.279E-03
              76             706     166.453E-03     174.279E-03
              93             706     166.453E-03     174.279E-03
              77             706     166.453E-03     174.279E-03
              77             707     178.337E-03     186.146E-03
              93             707     178.337E-03     186.146E-03
              78             707     178.337E-03     186.146E-03
              94             707     178.337E-03     186.146E-03
              78             708     193.095E-03     198.991E-03
              94             708     193.095E-03     198.991E-03
              95             708     193.095E-03     198.991E-03
              79             708     193.095E-03     198.991E-03
              80             709     220.092E-03     225.620E-03
              96             709     220.092E-03     225.620E-03
              95             709     220.092E-03     225.620E-03
              79             709     220.092E-03     225.620E-03
              97             710     71.7599E-03     67.7831E-03
              98             710     71.7599E-03     67.7831E-03
              81             710     71.7599E-03     67.7831E-03
              82             710     71.7599E-03     67.7831E-03
              82             711     71.3906E-03     74.5473E-03
              98             711     71.3906E-03     74.5473E-03
              99             711     71.3906E-03     74.5473E-03
              83             711     71.3906E-03     74.5473E-03
              84             712     74.5049E-03     81.1255E-03
              99             712     74.5049E-03     81.1255E-03
              83             712     74.5049E-03     81.1255E-03
             100             712     74.5049E-03     81.1255E-03
             100             713     80.0136E-03     88.7691E-03
              85             713     80.0136E-03     88.7691E-03
             101             713     80.0136E-03     88.7691E-03
              84             713     80.0136E-03     88.7691E-03
              86             714     86.9334E-03     97.4053E-03
              85             714     86.9334E-03     97.4053E-03
             101             714     86.9334E-03     97.4053E-03
             102             714     86.9334E-03     97.4053E-03
              86             715     95.1865E-03     106.667E-03
             102             715     95.1865E-03     106.667E-03
             103             715     95.1865E-03     106.667E-03
              87             715     95.1865E-03     106.667E-03
             103             716     104.385E-03     116.637E-03
             104             716     104.385E-03     116.637E-03
              87             716     104.385E-03     116.637E-03
              88             716     104.385E-03     116.637E-03
             104             717     114.234E-03     127.047E-03
              89             717     114.234E-03     127.047E-03
              88             717     114.234E-03     127.047E-03
             105             717     114.234E-03     127.047E-03
              89             718     124.665E-03     137.941E-03
             106             718     124.665E-03     137.941E-03
             105             718     124.665E-03     137.941E-03
              90             718     124.665E-03     137.941E-03
              91             719     135.441E-03     149.194E-03
             107             719     135.441E-03     149.194E-03
              90             719     135.441E-03     149.194E-03
             106             719     135.441E-03     149.194E-03
             108             720     147.015E-03     161.203E-03
             107             720     147.015E-03     161.203E-03
              91             720     147.015E-03     161.203E-03
              92             720     147.015E-03     161.203E-03
             108             721     159.577E-03     174.462E-03
              93             721     159.577E-03     174.462E-03
             109             721     159.577E-03     174.462E-03
              92             721     159.577E-03     174.462E-03
              94             722     177.165E-03     191.422E-03
              93             722     177.165E-03     191.422E-03
             109             722     177.165E-03     191.422E-03
             110             722     177.165E-03     191.422E-03
             111             723     212.136E-03     221.862E-03
              94             723     212.136E-03     221.862E-03
              95             723     212.136E-03     221.862E-03
             110             723     212.136E-03     221.862E-03
              96             724     267.139E-03     268.640E-03
             112             724     267.139E-03     268.640E-03
             111             724     267.139E-03     268.640E-03
              95             724     267.139E-03     268.640E-03
             114             725     59.6387E-03     66.4052E-03
              98             725     59.6387E-03     66.4052E-03
              97             725     59.6387E-03     66.4052E-03
             113             725     59.6387E-03     66.4052E-03
              98             726     61.5733E-03     70.9929E-03
              99             726     61.5733E-03     70.9929E-03
             114             726     61.5733E-03     70.9929E-03
             115             726     61.5733E-03     70.9929E-03
             116             727     65.7906E-03     77.6514E-03
             115             727     65.7906E-03     77.6514E-03
             100             727     65.7906E-03     77.6514E-03
              99             727     65.7906E-03     77.6514E-03
             100             728     71.5022E-03     86.0534E-03
             116             728     71.5022E-03     86.0534E-03
             117             728     71.5022E-03     86.0534E-03
             101             728     71.5022E-03     86.0534E-03
             117             729     78.5982E-03     95.3432E-03
             101             729     78.5982E-03     95.3432E-03
             102             729     78.5982E-03     95.3432E-03
             118             729     78.5982E-03     95.3432E-03
             102             730     86.9091E-03     105.192E-03
             118             730     86.9091E-03     105.192E-03
             119             730     86.9091E-03     105.192E-03
             103             730     86.9091E-03     105.192E-03
             119             731     96.0827E-03     115.377E-03
             120             731     96.0827E-03     115.377E-03
             104             731     96.0827E-03     115.377E-03
             103             731     96.0827E-03     115.377E-03
             121             732     105.828E-03     125.891E-03
             104             732     105.828E-03     125.891E-03
             105             732     105.828E-03     125.891E-03
             120             732     105.828E-03     125.891E-03
             121             733     115.915E-03     136.489E-03
             122             733     115.915E-03     136.489E-03
             105             733     115.915E-03     136.489E-03
             106             733     115.915E-03     136.489E-03
             123             734     126.502E-03     147.513E-03
             122             734     126.502E-03     147.513E-03
             106             734     126.502E-03     147.513E-03
             107             734     126.502E-03     147.513E-03
             124             735     137.631E-03     159.039E-03
             108             735     137.631E-03     159.039E-03
             123             735     137.631E-03     159.039E-03
             107             735     137.631E-03     159.039E-03
             109             736     151.804E-03     173.386E-03
             125             736     151.804E-03     173.386E-03
             124             736     151.804E-03     173.386E-03
             108             736     151.804E-03     173.386E-03
             110             737     171.385E-03     193.406E-03
             109             737     171.385E-03     193.406E-03
             126             737     171.385E-03     193.406E-03
             125             737     171.385E-03     193.406E-03
             111             738     209.459E-03     231.755E-03
             126             738     209.459E-03     231.755E-03
             110             738     209.459E-03     231.755E-03
             127             738     209.459E-03     231.755E-03
             128             739     292.454E-03     311.232E-03
             127             739     292.454E-03     311.232E-03
             112             739     292.454E-03     311.232E-03
             111             739     292.454E-03     311.232E-03
             113             740     85.5862E-03     96.6761E-03
             129             740     85.5862E-03     96.6761E-03
             130             740     85.5862E-03     96.6761E-03
             114             740     85.5862E-03     96.6761E-03
             114             741     97.0328E-03     99.8426E-03
             115             741     97.0328E-03     99.8426E-03
             130             741     97.0328E-03     99.8426E-03
             131             741     97.0328E-03     99.8426E-03
             131             742     107.642E-03     109.303E-03
             116             742     107.642E-03     109.303E-03
             115             742     107.642E-03     109.303E-03
             132             742     107.642E-03     109.303E-03
             117             743     120.365E-03     122.688E-03
             133             743     120.365E-03     122.688E-03
             132             743     120.365E-03     122.688E-03
             116             743     120.365E-03     122.688E-03
             133             744     134.779E-03     137.350E-03
             117             744     134.779E-03     137.350E-03
             134             744     134.779E-03     137.350E-03
             118             744     134.779E-03     137.350E-03
             134             745     150.517E-03     153.461E-03
             118             745     150.517E-03     153.461E-03
             135             745     150.517E-03     153.461E-03
             119             745     150.517E-03     153.461E-03
             135             746     167.003E-03     170.047E-03
             119             746     167.003E-03     170.047E-03
             120             746     167.003E-03     170.047E-03
             136             746     167.003E-03     170.047E-03
             136             747     184.010E-03     187.185E-03
             120             747     184.010E-03     187.185E-03
             121             747     184.010E-03     187.185E-03
             137             747     184.010E-03     187.185E-03
             122             748     201.095E-03     204.212E-03
             121             748     201.095E-03     204.212E-03
             137             748     201.095E-03     204.212E-03
             138             748     201.095E-03     204.212E-03
             139             749     218.175E-03     221.169E-03
             123             749     218.175E-03     221.169E-03
             122             749     218.175E-03     221.169E-03
             138             749     218.175E-03     221.169E-03
             140             750     234.951E-03     237.595E-03
             123             750     234.951E-03     237.595E-03
             124             750     234.951E-03     237.595E-03
             139             750     234.951E-03     237.595E-03
             140             751     251.301E-03     253.374E-03
             124             751     251.301E-03     253.374E-03
             141             751     251.301E-03     253.374E-03
             125             751     251.301E-03     253.374E-03
             142             752     268.174E-03     269.089E-03
             125             752     268.174E-03     269.089E-03
             141             752     268.174E-03     269.089E-03
             126             752     268.174E-03     269.089E-03
             143             753     285.259E-03     286.339E-03
             126             753     285.259E-03     286.339E-03
             142             753     285.259E-03     286.339E-03
             127             753     285.259E-03     286.339E-03
             144             754     312.787E-03     319.648E-03
             143             754     312.787E-03     319.648E-03
             128             754     312.787E-03     319.648E-03
             127             754     312.787E-03     319.648E-03
             146             755     112.768E-03     121.562E-03
             130             755     112.768E-03     121.562E-03
             129             755     112.768E-03     121.562E-03
             145             755     112.768E-03     121.562E-03
             131             756     126.935E-03     125.234E-03
             146             756     126.935E-03     125.234E-03
             130             756     126.935E-03     125.234E-03
             147             756     126.935E-03     125.234E-03
             132             757     145.408E-03     137.877E-03
             131             757     145.408E-03     137.877E-03
             148             757     145.408E-03     137.877E-03
             147             757     145.408E-03     137.877E-03
             133             758     166.111E-03     156.322E-03
             148             758     166.111E-03     156.322E-03
             149             758     166.111E-03     156.322E-03
             132             758     166.111E-03     156.322E-03
             150             759     188.574E-03     177.655E-03
             134             759     188.574E-03     177.655E-03
             133             759     188.574E-03     177.655E-03
             149             759     188.574E-03     177.655E-03
             150             760     212.466E-03     200.787E-03
             151             760     212.466E-03     200.787E-03
             134             760     212.466E-03     200.787E-03
             135             760     212.466E-03     200.787E-03
             136             761     237.254E-03     225.020E-03
             151             761     237.254E-03     225.020E-03
             135             761     237.254E-03     225.020E-03
             152             761     237.254E-03     225.020E-03
             152             762     262.518E-03     249.922E-03
             153             762     262.518E-03     249.922E-03
             136             762     262.518E-03     249.922E-03
             137             762     262.518E-03     249.922E-03
             137             763     288.162E-03     275.089E-03
             154             763     288.162E-03     275.089E-03
             153             763     288.162E-03     275.089E-03
             138             763     288.162E-03     275.089E-03
             139             764     313.510E-03     300.167E-03
             154             764     313.510E-03     300.167E-03
             155             764     313.510E-03     300.167E-03
             138             764     313.510E-03     300.167E-03
             155             765     338.430E-03     324.292E-03
             156             765     338.430E-03     324.292E-03
             139             765     338.430E-03     324.292E-03
             140             765     338.430E-03     324.292E-03
             140             766     360.692E-03     345.969E-03
             141             766     360.692E-03     345.969E-03
             156             766     360.692E-03     345.969E-03
             157             766     360.692E-03     345.969E-03
             141             767     376.704E-03     361.457E-03
             158             767     376.704E-03     361.457E-03
             142             767     376.704E-03     361.457E-03
             157             767     376.704E-03     361.457E-03
             143             768     378.786E-03     363.052E-03
             158             768     378.786E-03     363.052E-03
             159             768     378.786E-03     363.052E-03
             142             768     378.786E-03     363.052E-03
             160             769     354.549E-03     341.436E-03
             143             769     354.549E-03     341.436E-03
             144             769     354.549E-03     341.436E-03
             159             769     354.549E-03     341.436E-03
             145             770     100.571E-03     101.113E-03
             161             770     100.571E-03     101.113E-03
             162             770     100.571E-03     101.113E-03
             146             770     100.571E-03     101.113E-03
             163             771     110.113E-03     113.290E-03
             147             771     110.113E-03     113.290E-03
             146             771     110.113E-03     113.290E-03
             162             771     110.113E-03     113.290E-03
             147             772     129.058E-03     128.547E-03
             148             772     129.058E-03     128.547E-03
             164             772     129.058E-03     128.547E-03
             163             772     129.058E-03     128.547E-03
             149             773     151.376E-03     149.321E-03
             165             773     151.376E-03     149.321E-03
             148             773     151.376E-03     149.321E-03
             164             773     151.376E-03     149.321E-03
             149             774     175.449E-03     173.037E-03
             150             774     175.449E-03     173.037E-03
             166             774     175.449E-03     173.037E-03
             165             774     175.449E-03     173.037E-03
             151             775     200.959E-03     198.343E-03
             166             775     200.959E-03     198.343E-03
             150             775     200.959E-03     198.343E-03
             167             775     200.959E-03     198.343E-03
             151             776     227.352E-03     224.754E-03
             168             776     227.352E-03     224.754E-03
             167             776     227.352E-03     224.754E-03
             152             776     227.352E-03     224.754E-03
             153             777     254.563E-03     251.880E-03
             168             777     254.563E-03     251.880E-03
             169             777     254.563E-03     251.880E-03
             152             777     254.563E-03     251.880E-03
             154             778     282.313E-03     279.657E-03
             170             778     282.313E-03     279.657E-03
             169             778     282.313E-03     279.657E-03
             153             778     282.313E-03     279.657E-03
             154             779     310.744E-03     308.033E-03
             155             779     310.744E-03     308.033E-03
             170             779     310.744E-03     308.033E-03
             171             779     310.744E-03     308.033E-03
             155             780     339.197E-03     336.735E-03
             171             780     339.197E-03     336.735E-03
             156             780     339.197E-03     336.735E-03
             172             780     339.197E-03     336.735E-03
             173             781     367.555E-03     365.270E-03
             157             781     367.555E-03     365.270E-03
             156             781     367.555E-03     365.270E-03
             172             781     367.555E-03     365.270E-03
             174             782     391.787E-03     391.131E-03
             158             782     391.787E-03     391.131E-03
             173             782     391.787E-03     391.131E-03
             157             782     391.787E-03     391.131E-03
             159             783     400.423E-03     405.171E-03
             174             783     400.423E-03     405.171E-03
             175             783     400.423E-03     405.171E-03
             158             783     400.423E-03     405.171E-03
             176             784     403.842E-03     408.861E-03
             175             784     403.842E-03     408.861E-03
             160             784     403.842E-03     408.861E-03
             159             784     403.842E-03     408.861E-03
             178             785     85.0153E-03     80.4224E-03
             162             785     85.0153E-03     80.4224E-03
             177             785     85.0153E-03     80.4224E-03
             161             785     85.0153E-03     80.4224E-03
             178             786     95.8319E-03     99.4157E-03
             162             786     95.8319E-03     99.4157E-03
             179             786     95.8319E-03     99.4157E-03
             163             786     95.8319E-03     99.4157E-03
             179             787     113.815E-03     120.873E-03
             180             787     113.815E-03     120.873E-03
             163             787     113.815E-03     120.873E-03
             164             787     113.815E-03     120.873E-03
             181             788     137.247E-03     144.277E-03
             164             788     137.247E-03     144.277E-03
             180             788     137.247E-03     144.277E-03
             165             788     137.247E-03     144.277E-03
             166             789     162.881E-03     170.033E-03
             182             789     162.881E-03     170.033E-03
             165             789     162.881E-03     170.033E-03
             181             789     162.881E-03     170.033E-03
             182             790     189.654E-03     197.107E-03
             167             790     189.654E-03     197.107E-03
             166             790     189.654E-03     197.107E-03
             183             790     189.654E-03     197.107E-03
             167             791     217.371E-03     224.990E-03
             184             791     217.371E-03     224.990E-03
             168             791     217.371E-03     224.990E-03
             183             791     217.371E-03     224.990E-03
             184             792     245.745E-03     253.535E-03
             185             792     245.745E-03     253.535E-03
             168             792     245.745E-03     253.535E-03
             169             792     245.745E-03     253.535E-03
             169             793     274.723E-03     282.683E-03
             170             793     274.723E-03     282.683E-03
             185             793     274.723E-03     282.683E-03
             186             793     274.723E-03     282.683E-03
             170             794     304.302E-03     312.489E-03
             171             794     304.302E-03     312.489E-03
             186             794     304.302E-03     312.489E-03
             187             794     304.302E-03     312.489E-03
             172             795     334.458E-03     343.275E-03
             187             795     334.458E-03     343.275E-03
             188             795     334.458E-03     343.275E-03
             171             795     334.458E-03     343.275E-03
             189             796     364.902E-03     374.758E-03
             188             796     364.902E-03     374.758E-03
             173             796     364.902E-03     374.758E-03
             172             796     364.902E-03     374.758E-03
             190             797     396.583E-03     407.509E-03
             173             797     396.583E-03     407.509E-03
             189             797     396.583E-03     407.509E-03
             174             797     396.583E-03     407.509E-03
             175             798     425.810E-03     437.652E-03
             190             798     425.810E-03     437.652E-03
             174             798     425.810E-03     437.652E-03
             191             798     425.810E-03     437.652E-03
             176             799     454.752E-03     466.598E-03
             175             799     454.752E-03     466.598E-03
             192             799     454.752E-03     466.598E-03
             191             799     454.752E-03     466.598E-03
             193             800     67.2166E-03     66.9783E-03
             194             800     67.2166E-03     66.9783E-03
             177             800     67.2166E-03     66.9783E-03
             178             800     67.2166E-03     66.9783E-03
             179             801     79.1513E-03     88.9111E-03
             194             801     79.1513E-03     88.9111E-03
             195             801     79.1513E-03     88.9111E-03
             178             801     79.1513E-03     88.9111E-03
             196             802     99.2339E-03     114.606E-03
             195             802     99.2339E-03     114.606E-03
             179             802     99.2339E-03     114.606E-03
             180             802     99.2339E-03     114.606E-03
             180             803     123.802E-03     140.922E-03
             197             803     123.802E-03     140.922E-03
             181             803     123.802E-03     140.922E-03
             196             803     123.802E-03     140.922E-03
             197             804     150.530E-03     168.337E-03
             198             804     150.530E-03     168.337E-03
             181             804     150.530E-03     168.337E-03
             182             804     150.530E-03     168.337E-03
             198             805     178.336E-03     196.529E-03
             182             805     178.336E-03     196.529E-03
             183             805     178.336E-03     196.529E-03
             199             805     178.336E-03     196.529E-03
             199             806     206.776E-03     225.217E-03
             183             806     206.776E-03     225.217E-03
             200             806     206.776E-03     225.217E-03
             184             806     206.776E-03     225.217E-03
             200             807     235.618E-03     254.229E-03
             184             807     235.618E-03     254.229E-03
             201             807     235.618E-03     254.229E-03
             185             807     235.618E-03     254.229E-03
             201             808     264.869E-03     283.559E-03
             202             808     264.869E-03     283.559E-03
             185             808     264.869E-03     283.559E-03
             186             808     264.869E-03     283.559E-03
             203             809     294.251E-03     313.233E-03
             186             809     294.251E-03     313.233E-03
             202             809     294.251E-03     313.233E-03
             187             809     294.251E-03     313.233E-03
             203             810     324.321E-03     343.572E-03
             204             810     324.321E-03     343.572E-03
             188             810     324.321E-03     343.572E-03
             187             810     324.321E-03     343.572E-03
             188             811     355.198E-03     375.474E-03
             205             811     355.198E-03     375.474E-03
             204             811     355.198E-03     375.474E-03
             189             811     355.198E-03     375.474E-03
             205             812     389.427E-03     410.316E-03
             206             812     389.427E-03     410.316E-03
             190             812     389.427E-03     410.316E-03
             189             812     389.427E-03     410.316E-03
             191             813     440.823E-03     457.150E-03
             206             813     440.823E-03     457.150E-03
             207             813     440.823E-03     457.150E-03
             190             813     440.823E-03     457.150E-03
             191             814     503.744E-03     510.032E-03
             207             814     503.744E-03     510.032E-03
             208             814     503.744E-03     510.032E-03
             192             814     503.744E-03     510.032E-03
             193             815     46.5429E-03     57.5872E-03
             210             815     46.5429E-03     57.5872E-03
             194             815     46.5429E-03     57.5872E-03
             209             815     46.5429E-03     57.5872E-03
             194             816     61.5303E-03     83.5146E-03
             195             816     61.5303E-03     83.5146E-03
             210             816     61.5303E-03     83.5146E-03
             211             816     61.5303E-03     83.5146E-03
             212             817     84.8053E-03     110.879E-03
             195             817     84.8053E-03     110.879E-03
             196             817     84.8053E-03     110.879E-03
             211             817     84.8053E-03     110.879E-03
             197             818     110.896E-03     139.394E-03
             212             818     110.896E-03     139.394E-03
             213             818     110.896E-03     139.394E-03
             196             818     110.896E-03     139.394E-03
             198             819     138.575E-03     167.869E-03
             197             819     138.575E-03     167.869E-03
             213             819     138.575E-03     167.869E-03
             214             819     138.575E-03     167.869E-03
             199             820     166.999E-03     196.581E-03
             214             820     166.999E-03     196.581E-03
             198             820     166.999E-03     196.581E-03
             215             820     166.999E-03     196.581E-03
             199             821     195.660E-03     225.367E-03
             200             821     195.660E-03     225.367E-03
             215             821     195.660E-03     225.367E-03
             216             821     195.660E-03     225.367E-03
             216             822     224.500E-03     254.222E-03
             217             822     224.500E-03     254.222E-03
             201             822     224.500E-03     254.222E-03
             200             822     224.500E-03     254.222E-03
             217             823     253.216E-03     282.927E-03
             202             823     253.216E-03     282.927E-03
             201             823     253.216E-03     282.927E-03
             218             823     253.216E-03     282.927E-03
             202             824     282.117E-03     311.677E-03
             219             824     282.117E-03     311.677E-03
             218             824     282.117E-03     311.677E-03
             203             824     282.117E-03     311.677E-03
             220             825     311.064E-03     340.463E-03
             204             825     311.064E-03     340.463E-03
             219             825     311.064E-03     340.463E-03
             203             825     311.064E-03     340.463E-03
             220             826     342.103E-03     370.994E-03
             221             826     342.103E-03     370.994E-03
             205             826     342.103E-03     370.994E-03
             204             826     342.103E-03     370.994E-03
             221             827     377.364E-03     405.693E-03
             206             827     377.364E-03     405.693E-03
             222             827     377.364E-03     405.693E-03
             205             827     377.364E-03     405.693E-03
             222             828     429.622E-03     457.178E-03
             223             828     429.622E-03     457.178E-03
             206             828     429.622E-03     457.178E-03
             207             828     429.622E-03     457.178E-03
             223             829     524.602E-03     545.918E-03
             224             829     524.602E-03     545.918E-03
             208             829     524.602E-03     545.918E-03
             207             829     524.602E-03     545.918E-03
             226             830     97.2389E-03     115.115E-03
             209             830     97.2389E-03     115.115E-03
             225             830     97.2389E-03     115.115E-03
             210             830     97.2389E-03     115.115E-03
             227             831     120.687E-03     132.719E-03
             210             831     120.687E-03     132.719E-03
             226             831     120.687E-03     132.719E-03
             211             831     120.687E-03     132.719E-03
             228             832     146.808E-03     159.133E-03
             212             832     146.808E-03     159.133E-03
             211             832     146.808E-03     159.133E-03
             227             832     146.808E-03     159.133E-03
             228             833     176.486E-03     189.338E-03
             229             833     176.486E-03     189.338E-03
             212             833     176.486E-03     189.338E-03
             213             833     176.486E-03     189.338E-03
             229             834     208.414E-03     221.223E-03
             213             834     208.414E-03     221.223E-03
             214             834     208.414E-03     221.223E-03
             230             834     208.414E-03     221.223E-03
             215             835     241.439E-03     254.098E-03
             214             835     241.439E-03     254.098E-03
             230             835     241.439E-03     254.098E-03
             231             835     241.439E-03     254.098E-03
             216             836     275.205E-03     287.525E-03
             231             836     275.205E-03     287.525E-03
             232             836     275.205E-03     287.525E-03
             215             836     275.205E-03     287.525E-03
             232             837     308.961E-03     321.015E-03
             233             837     308.961E-03     321.015E-03
             217             837     308.961E-03     321.015E-03
             216             837     308.961E-03     321.015E-03
             233             838     342.627E-03     354.155E-03
             234             838     342.627E-03     354.155E-03
             217             838     342.627E-03     354.155E-03
             218             838     342.627E-03     354.155E-03
             235             839     375.542E-03     386.536E-03
             234             839     375.542E-03     386.536E-03
             218             839     375.542E-03     386.536E-03
             219             839     375.542E-03     386.536E-03
             220             840     407.708E-03     417.257E-03
             235             840     407.708E-03     417.257E-03
             236             840     407.708E-03     417.257E-03
             219             840     407.708E-03     417.257E-03
             236             841     438.600E-03     446.393E-03
             237             841     438.600E-03     446.393E-03
             220             841     438.600E-03     446.393E-03
             221             841     438.600E-03     446.393E-03
             222             842     469.169E-03     473.982E-03
             237             842     469.169E-03     473.982E-03
             238             842     469.169E-03     473.982E-03
             221             842     469.169E-03     473.982E-03
             222             843     499.525E-03     502.135E-03
             223             843     499.525E-03     502.135E-03
             238             843     499.525E-03     502.135E-03
             239             843     499.525E-03     502.135E-03
             240             844     541.053E-03     550.632E-03
             224             844     541.053E-03     550.632E-03
             223             844     541.053E-03     550.632E-03
             239             844     541.053E-03     550.632E-03
             242             845     149.814E-03     166.207E-03
             241             845     149.814E-03     166.207E-03
             225             845     149.814E-03     166.207E-03
             226             845     149.814E-03     166.207E-03
             227             846     173.668E-03     176.260E-03
             242             846     173.668E-03     176.260E-03
             226             846     173.668E-03     176.260E-03
             243             846     173.668E-03     176.260E-03
             227             847     204.648E-03     200.779E-03
             243             847     204.648E-03     200.779E-03
             244             847     204.648E-03     200.779E-03
             228             847     204.648E-03     200.779E-03
             228             848     239.353E-03     233.639E-03
             229             848     239.353E-03     233.639E-03
             244             848     239.353E-03     233.639E-03
             245             848     239.353E-03     233.639E-03
             230             849     276.705E-03     270.319E-03
             229             849     276.705E-03     270.319E-03
             245             849     276.705E-03     270.319E-03
             246             849     276.705E-03     270.319E-03
             247             850     316.058E-03     309.198E-03
             230             850     316.058E-03     309.198E-03
             231             850     316.058E-03     309.198E-03
             246             850     316.058E-03     309.198E-03
             232             851     356.410E-03     349.273E-03
             248             851     356.410E-03     349.273E-03
             231             851     356.410E-03     349.273E-03
             247             851     356.410E-03     349.273E-03
             249             852     397.442E-03     389.854E-03
             248             852     397.442E-03     389.854E-03
             232             852     397.442E-03     389.854E-03
             233             852     397.442E-03     389.854E-03
             250             853     438.407E-03     430.472E-03
             233             853     438.407E-03     430.472E-03
             249             853     438.407E-03     430.472E-03
             234             853     438.407E-03     430.472E-03
             250             854     479.016E-03     470.215E-03
             235             854     479.016E-03     470.215E-03
             251             854     479.016E-03     470.215E-03
             234             854     479.016E-03     470.215E-03
             235             855     518.000E-03     508.338E-03
             251             855     518.000E-03     508.338E-03
             252             855     518.000E-03     508.338E-03
             236             855     518.000E-03     508.338E-03
             237             856     553.374E-03     542.435E-03
             236             856     553.374E-03     542.435E-03
             252             856     553.374E-03     542.435E-03
             253             856     553.374E-03     542.435E-03
             253             857     582.412E-03     569.786E-03
             237             857     582.412E-03     569.786E-03
             254             857     582.412E-03     569.786E-03
             238             857     582.412E-03     569.786E-03
             238             858     596.965E-03     584.923E-03
             255             858     596.965E-03     584.923E-03
             254             858     596.965E-03     584.923E-03
             239             858     596.965E-03     584.923E-03
             239             859     590.409E-03     577.489E-03
             256             859     590.409E-03     577.489E-03
             240             859     590.409E-03     577.489E-03
             255             859     590.409E-03     577.489E-03
             241             860     129.299E-03     137.464E-03
             242             860     129.299E-03     137.464E-03
             257             860     129.299E-03     137.464E-03
             258             860     129.299E-03     137.464E-03
             258             861     149.117E-03     159.334E-03
             259             861     149.117E-03     159.334E-03
             242             861     149.117E-03     159.334E-03
             243             861     149.117E-03     159.334E-03
             244             862     183.354E-03     187.191E-03
             260             862     183.354E-03     187.191E-03
             243             862     183.354E-03     187.191E-03
             259             862     183.354E-03     187.191E-03
             260             863     222.097E-03     223.301E-03
             261             863     222.097E-03     223.301E-03
             244             863     222.097E-03     223.301E-03
             245             863     222.097E-03     223.301E-03
             262             864     262.963E-03     263.422E-03
             245             864     262.963E-03     263.422E-03
             261             864     262.963E-03     263.422E-03
             246             864     262.963E-03     263.422E-03
             246             865     305.403E-03     305.685E-03
             262             865     305.403E-03     305.685E-03
             247             865     305.403E-03     305.685E-03
             263             865     305.403E-03     305.685E-03
             264             866     348.934E-03     349.228E-03
             263             866     348.934E-03     349.228E-03
             248             866     348.934E-03     349.228E-03
             247             866     348.934E-03     349.228E-03
             265             867     393.252E-03     393.612E-03
             264             867     393.252E-03     393.612E-03
             249             867     393.252E-03     393.612E-03
             248             867     393.252E-03     393.612E-03
             249             868     438.282E-03     438.610E-03
             266             868     438.282E-03     438.610E-03
             265             868     438.282E-03     438.610E-03
             250             868     438.282E-03     438.610E-03
             251             869     483.430E-03     484.008E-03
             250             869     483.430E-03     484.008E-03
             266             869     483.430E-03     484.008E-03
             267             869     483.430E-03     484.008E-03
             268             870     528.572E-03     529.291E-03
             267             870     528.572E-03     529.291E-03
             251             870     528.572E-03     529.291E-03
             252             870     528.572E-03     529.291E-03
             269             871     571.391E-03     573.259E-03
             253             871     571.391E-03     573.259E-03
             268             871     571.391E-03     573.259E-03
             252             871     571.391E-03     573.259E-03
             253             872     607.840E-03     612.498E-03
             254             872     607.840E-03     612.498E-03
             270             872     607.840E-03     612.498E-03
             269             872     607.840E-03     612.498E-03
             271             873     631.331E-03     639.352E-03
             255             873     631.331E-03     639.352E-03
             270             873     631.331E-03     639.352E-03
             254             873     631.331E-03     639.352E-03
             271             874     645.987E-03     655.163E-03
             255             874     645.987E-03     655.163E-03
             272             874     645.987E-03     655.163E-03
             256             874     645.987E-03     655.163E-03
             273             875     106.067E-03     107.655E-03
             258             875     106.067E-03     107.655E-03
             274             875     106.067E-03     107.655E-03
             257             875     106.067E-03     107.655E-03
             258             876     129.718E-03     139.831E-03
             259             876     129.718E-03     139.831E-03
             275             876     129.718E-03     139.831E-03
             274             876     129.718E-03     139.831E-03
             275             877     165.089E-03     175.920E-03
             260             877     165.089E-03     175.920E-03
             259             877     165.089E-03     175.920E-03
             276             877     165.089E-03     175.920E-03
             276             878     206.819E-03     215.532E-03
             260             878     206.819E-03     215.532E-03
             261             878     206.819E-03     215.532E-03
             277             878     206.819E-03     215.532E-03
             262             879     250.485E-03     258.684E-03
             261             879     250.485E-03     258.684E-03
             278             879     250.485E-03     258.684E-03
             277             879     250.485E-03     258.684E-03
             263             880     295.297E-03     303.463E-03
             279             880     295.297E-03     303.463E-03
             262             880     295.297E-03     303.463E-03
             278             880     295.297E-03     303.463E-03
             263             881     341.053E-03     349.374E-03
             280             881     341.053E-03     349.374E-03
             279             881     341.053E-03     349.374E-03
             264             881     341.053E-03     349.374E-03
             280             882     387.562E-03     396.164E-03
             281             882     387.562E-03     396.164E-03
             264             882     387.562E-03     396.164E-03
             265             882     387.562E-03     396.164E-03
             265             883     434.748E-03     443.769E-03
             282             883     434.748E-03     443.769E-03
             266             883     434.748E-03     443.769E-03
             281             883     434.748E-03     443.769E-03
             266             884     482.727E-03     492.416E-03
             282             884     482.727E-03     492.416E-03
             267             884     482.727E-03     492.416E-03
             283             884     482.727E-03     492.416E-03
             267             885     530.811E-03     541.835E-03
             268             885     530.811E-03     541.835E-03
             283             885     530.811E-03     541.835E-03
             284             885     530.811E-03     541.835E-03
             268             886     579.636E-03     592.239E-03
             285             886     579.636E-03     592.239E-03
             269             886     579.636E-03     592.239E-03
             284             886     579.636E-03     592.239E-03
             286             887     625.238E-03     640.815E-03
             270             887     625.238E-03     640.815E-03
             269             887     625.238E-03     640.815E-03
             285             887     625.238E-03     640.815E-03
             286             888     663.436E-03     682.036E-03
             287             888     663.436E-03     682.036E-03
             271             888     663.436E-03     682.036E-03
             270             888     663.436E-03     682.036E-03
             287             889     702.140E-03     714.746E-03
             288             889     702.140E-03     714.746E-03
             271             889     702.140E-03     714.746E-03
             272             889     702.140E-03     714.746E-03
             289             890     82.2000E-03     87.0354E-03
             290             890     82.2000E-03     87.0354E-03
             273             890     82.2000E-03     87.0354E-03
             274             890     82.2000E-03     87.0354E-03
             291             891     110.638E-03     123.491E-03
             275             891     110.638E-03     123.491E-03
             274             891     110.638E-03     123.491E-03
             290             891     110.638E-03     123.491E-03
             291             892     149.839E-03     165.991E-03
             275             892     149.839E-03     165.991E-03
             292             892     149.839E-03     165.991E-03
             276             892     149.839E-03     165.991E-03
             292             893     193.291E-03     209.873E-03
             277             893     193.291E-03     209.873E-03
             293             893     193.291E-03     209.873E-03
             276             893     193.291E-03     209.873E-03
             293             894     238.741E-03     255.147E-03
             277             894     238.741E-03     255.147E-03
             294             894     238.741E-03     255.147E-03
             278             894     238.741E-03     255.147E-03
             279             895     285.017E-03     301.530E-03
             294             895     285.017E-03     301.530E-03
             278             895     285.017E-03     301.530E-03
             295             895     285.017E-03     301.530E-03
             280             896     331.836E-03     348.561E-03
             279             896     331.836E-03     348.561E-03
             295             896     331.836E-03     348.561E-03
             296             896     331.836E-03     348.561E-03
             281             897     379.214E-03     396.197E-03
             280             897     379.214E-03     396.197E-03
             296             897     379.214E-03     396.197E-03
             297             897     379.214E-03     396.197E-03
             282             898     427.055E-03     444.552E-03
             297             898     427.055E-03     444.552E-03
             281             898     427.055E-03     444.552E-03
             298             898     427.055E-03     444.552E-03
             282             899     475.525E-03     493.726E-03
             283             899     475.525E-03     493.726E-03
             298             899     475.525E-03     493.726E-03
             299             899     475.525E-03     493.726E-03
             283             900     525.046E-03     544.607E-03
             299             900     525.046E-03     544.607E-03
             284             900     525.046E-03     544.607E-03
             300             900     525.046E-03     544.607E-03
             284             901     575.695E-03     597.057E-03
             285             901     575.695E-03     597.057E-03
             301             901     575.695E-03     597.057E-03
             300             901     575.695E-03     597.057E-03
             286             902     632.176E-03     653.566E-03
             302             902     632.176E-03     653.566E-03
             285             902     632.176E-03     653.566E-03
             301             902     632.176E-03     653.566E-03
             287             903     692.489E-03     711.943E-03
             302             903     692.489E-03     711.943E-03
             303             903     692.489E-03     711.943E-03
             286             903     692.489E-03     711.943E-03
             287             904     749.139E-03     767.165E-03
             288             904     749.139E-03     767.165E-03
             304             904     749.139E-03     767.165E-03
             303             904     749.139E-03     767.165E-03
             305             905     59.4414E-03     69.9795E-03
             290             905     59.4414E-03     69.9795E-03
             306             905     59.4414E-03     69.9795E-03
             289             905     59.4414E-03     69.9795E-03
             306             906     93.9476E-03     113.459E-03
             307             906     93.9476E-03     113.459E-03
             290             906     93.9476E-03     113.459E-03
             291             906     93.9476E-03     113.459E-03
             292             907     136.500E-03     159.289E-03
             291             907     136.500E-03     159.289E-03
             308             907     136.500E-03     159.289E-03
             307             907     136.500E-03     159.289E-03
             308             908     181.472E-03     206.124E-03
             309             908     181.472E-03     206.124E-03
             293             908     181.472E-03     206.124E-03
             292             908     181.472E-03     206.124E-03
             294             909     227.693E-03     252.746E-03
             310             909     227.693E-03     252.746E-03
             309             909     227.693E-03     252.746E-03
             293             909     227.693E-03     252.746E-03
             311             910     274.382E-03     299.626E-03
             295             910     274.382E-03     299.626E-03
             294             910     274.382E-03     299.626E-03
             310             910     274.382E-03     299.626E-03
             296             911     321.335E-03     346.702E-03
             312             911     321.335E-03     346.702E-03
             311             911     321.335E-03     346.702E-03
             295             911     321.335E-03     346.702E-03
             296             912     368.402E-03     393.893E-03
             312             912     368.402E-03     393.893E-03
             313             912     368.402E-03     393.893E-03
             297             912     368.402E-03     393.893E-03
             297             913     415.754E-03     441.329E-03
             314             913     415.754E-03     441.329E-03
             298             913     415.754E-03     441.329E-03
             313             913     415.754E-03     441.329E-03
             314             914     463.332E-03     489.338E-03
             298             914     463.332E-03     489.338E-03
             299             914     463.332E-03     489.338E-03
             315             914     463.332E-03     489.338E-03
             299             915     512.175E-03     538.545E-03
             315             915     512.175E-03     538.545E-03
             316             915     512.175E-03     538.545E-03
             300             915     512.175E-03     538.545E-03
             316             916     563.563E-03     590.846E-03
             317             916     563.563E-03     590.846E-03
             301             916     563.563E-03     590.846E-03
             300             916     563.563E-03     590.846E-03
             302             917     621.874E-03     649.100E-03
             301             917     621.874E-03     649.100E-03
             317             917     621.874E-03     649.100E-03
             318             917     621.874E-03     649.100E-03
             302             918     702.654E-03     723.765E-03
             318             918     702.654E-03     723.765E-03
             303             918     702.654E-03     723.765E-03
             319             918     702.654E-03     723.765E-03
             320             919     794.303E-03     804.048E-03
             303             919     794.303E-03     804.048E-03
             319             919     794.303E-03     804.048E-03
             304             919     794.303E-03     804.048E-03
             306             920     41.4022E-03     61.4494E-03
             322             920     41.4022E-03     61.4494E-03
             305             920     41.4022E-03     61.4494E-03
             321             920     41.4022E-03     61.4494E-03
             307             921     81.9579E-03     109.479E-03
             323             921     81.9579E-03     109.479E-03
             322             921     81.9579E-03     109.479E-03
             306             921     81.9579E-03     109.479E-03
             324             922     126.009E-03     157.781E-03
             323             922     126.009E-03     157.781E-03
             307             922     126.009E-03     157.781E-03
             308             922     126.009E-03     157.781E-03
             308             923     171.720E-03     205.026E-03
             325             923     171.720E-03     205.026E-03
             309             923     171.720E-03     205.026E-03
             324             923     171.720E-03     205.026E-03
             310             924     217.757E-03     251.933E-03
             325             924     217.757E-03     251.933E-03
             326             924     217.757E-03     251.933E-03
             309             924     217.757E-03     251.933E-03
             326             925     264.020E-03     298.360E-03
             311             925     264.020E-03     298.360E-03
             310             925     264.020E-03     298.360E-03
             327             925     264.020E-03     298.360E-03
             311             926     310.228E-03     344.498E-03
             327             926     310.228E-03     344.498E-03
             328             926     310.228E-03     344.498E-03
             312             926     310.228E-03     344.498E-03
             312             927     356.310E-03     390.398E-03
             328             927     356.310E-03     390.398E-03
             329             927     356.310E-03     390.398E-03
             313             927     356.310E-03     390.398E-03
             329             928     402.211E-03     435.988E-03
             330             928     402.211E-03     435.988E-03
             313             928     402.211E-03     435.988E-03
             314             928     402.211E-03     435.988E-03
             314             929     448.507E-03     481.702E-03
             330             929     448.507E-03     481.702E-03
             315             929     448.507E-03     481.702E-03
             331             929     448.507E-03     481.702E-03
             316             930     495.474E-03     527.919E-03
             315             930     495.474E-03     527.919E-03
             331             930     495.474E-03     527.919E-03
             332             930     495.474E-03     527.919E-03
             332             931     546.218E-03     577.380E-03
             316             931     546.218E-03     577.380E-03
             333             931     546.218E-03     577.380E-03
             317             931     546.218E-03     577.380E-03
             317             932     603.097E-03     633.078E-03
             333             932     603.097E-03     633.078E-03
             334             932     603.097E-03     633.078E-03
             318             932     603.097E-03     633.078E-03
             318             933     680.577E-03     710.082E-03
             334             933     680.577E-03     710.082E-03
             335             933     680.577E-03     710.082E-03
             319             933     680.577E-03     710.082E-03
             319             934     805.770E-03     828.137E-03
             335             934     805.770E-03     828.137E-03
             320             934     805.770E-03     828.137E-03
             336             934     805.770E-03     828.137E-03
             338             935     114.961E-03     137.488E-03
             337             935     114.961E-03     137.488E-03
             321             935     114.961E-03     137.488E-03
             322             935     114.961E-03     137.488E-03
             338             936     156.440E-03     171.515E-03
             339             936     156.440E-03     171.515E-03
             323             936     156.440E-03     171.515E-03
             322             936     156.440E-03     171.515E-03
             324             937     199.613E-03     215.045E-03
             340             937     199.613E-03     215.045E-03
             339             937     199.613E-03     215.045E-03
             323             937     199.613E-03     215.045E-03
             340             938     246.300E-03     262.791E-03
             324             938     246.300E-03     262.791E-03
             325             938     246.300E-03     262.791E-03
             341             938     246.300E-03     262.791E-03
             325             939     295.392E-03     312.144E-03
             326             939     295.392E-03     312.144E-03
             341             939     295.392E-03     312.144E-03
             342             939     295.392E-03     312.144E-03
             342             940     345.691E-03     362.393E-03
             343             940     345.691E-03     362.393E-03
             326             940     345.691E-03     362.393E-03
             327             940     345.691E-03     362.393E-03
             343             941     396.603E-03     412.986E-03
             328             941     396.603E-03     412.986E-03
             327             941     396.603E-03     412.986E-03
             344             941     396.603E-03     412.986E-03
             329             942     447.430E-03     463.435E-03
             345             942     447.430E-03     463.435E-03
             344             942     447.430E-03     463.435E-03
             328             942     447.430E-03     463.435E-03
             346             943     498.133E-03     513.293E-03
             329             943     498.133E-03     513.293E-03
             330             943     498.133E-03     513.293E-03
             345             943     498.133E-03     513.293E-03
             347             944     548.042E-03     562.263E-03
             330             944     548.042E-03     562.263E-03
             346             944     548.042E-03     562.263E-03
             331             944     548.042E-03     562.263E-03
             332             945     597.688E-03     609.568E-03
             347             945     597.688E-03     609.568E-03
             331             945     597.688E-03     609.568E-03
             348             945     597.688E-03     609.568E-03
             333             946     646.339E-03     655.600E-03
             348             946     646.339E-03     655.600E-03
             332             946     646.339E-03     655.600E-03
             349             946     646.339E-03     655.600E-03
             334             947     696.003E-03     701.173E-03
             350             947     696.003E-03     701.173E-03
             349             947     696.003E-03     701.173E-03
             333             947     696.003E-03     701.173E-03
             351             948     746.255E-03     748.834E-03
             350             948     746.255E-03     748.834E-03
             335             948     746.255E-03     748.834E-03
             334             948     746.255E-03     748.834E-03
             352             949     812.169E-03     825.537E-03
             335             949     812.169E-03     825.537E-03
             351             949     812.169E-03     825.537E-03
             336             949     812.169E-03     825.537E-03
             337             950     180.910E-03     202.878E-03
             353             950     180.910E-03     202.878E-03
             338             950     180.910E-03     202.878E-03
             354             950     180.910E-03     202.878E-03
             339             951     216.707E-03     222.565E-03
             338             951     216.707E-03     222.565E-03
             354             951     216.707E-03     222.565E-03
             355             951     216.707E-03     222.565E-03
             339             952     262.845E-03     262.374E-03
             340             952     262.845E-03     262.374E-03
             356             952     262.845E-03     262.374E-03
             355             952     262.845E-03     262.374E-03
             340             953     314.302E-03     312.555E-03
             357             953     314.302E-03     312.555E-03
             341             953     314.302E-03     312.555E-03
             356             953     314.302E-03     312.555E-03
             341             954     369.115E-03     367.171E-03
             358             954     369.115E-03     367.171E-03
             357             954     369.115E-03     367.171E-03
             342             954     369.115E-03     367.171E-03
             359             955     426.331E-03     424.145E-03
             358             955     426.331E-03     424.145E-03
             342             955     426.331E-03     424.145E-03
             343             955     426.331E-03     424.145E-03
             344             956     484.652E-03     482.342E-03
             343             956     484.652E-03     482.342E-03
             360             956     484.652E-03     482.342E-03
             359             956     484.652E-03     482.342E-03
             360             957     543.693E-03     540.967E-03
             344             957     543.693E-03     540.967E-03
             361             957     543.693E-03     540.967E-03
             345             957     543.693E-03     540.967E-03
             362             958     602.590E-03     599.513E-03
             345             958     602.590E-03     599.513E-03
             346             958     602.590E-03     599.513E-03
             361             958     602.590E-03     599.513E-03
             347             959     661.140E-03     657.011E-03
             363             959     661.140E-03     657.011E-03
             362             959     661.140E-03     657.011E-03
             346             959     661.140E-03     657.011E-03
             347             960     717.970E-03     712.735E-03
             363             960     717.970E-03     712.735E-03
             348             960     717.970E-03     712.735E-03
             364             960     717.970E-03     712.735E-03
             348             961     771.319E-03     764.387E-03
             364             961     771.319E-03     764.387E-03
             349             961     771.319E-03     764.387E-03
             365             961     771.319E-03     764.387E-03
             365             962     818.467E-03     809.352E-03
             349             962     818.467E-03     809.352E-03
             366             962     818.467E-03     809.352E-03
             350             962     818.467E-03     809.352E-03
             350             963     852.367E-03     843.841E-03
             351             963     852.367E-03     843.841E-03
             367             963     852.367E-03     843.841E-03
             366             963     852.367E-03     843.841E-03
             367             964     868.079E-03     856.838E-03
             368             964     868.079E-03     856.838E-03
             352             964     868.079E-03     856.838E-03
             351             964     868.079E-03     856.838E-03
             353             965     150.876E-03     165.795E-03
             369             965     150.876E-03     165.795E-03
             370             965     150.876E-03     165.795E-03
             354             965     150.876E-03     165.795E-03
             370             966     184.043E-03     200.858E-03
             355             966     184.043E-03     200.858E-03
             354             966     184.043E-03     200.858E-03
             371             966     184.043E-03     200.858E-03
             356             967     236.416E-03     245.147E-03
             355             967     236.416E-03     245.147E-03
             371             967     236.416E-03     245.147E-03
             372             967     236.416E-03     245.147E-03
             356             968     293.799E-03     299.802E-03
             373             968     293.799E-03     299.802E-03
             372             968     293.799E-03     299.802E-03
             357             968     293.799E-03     299.802E-03
             373             969     353.558E-03     358.791E-03
             357             969     353.558E-03     358.791E-03
             358             969     353.558E-03     358.791E-03
             374             969     353.558E-03     358.791E-03
             358             970     414.925E-03     420.089E-03
             359             970     414.925E-03     420.089E-03
             375             970     414.925E-03     420.089E-03
             374             970     414.925E-03     420.089E-03
             375             971     477.400E-03     482.673E-03
             359             971     477.400E-03     482.673E-03
             376             971     477.400E-03     482.673E-03
             360             971     477.400E-03     482.673E-03
             361             972     540.673E-03     546.102E-03
             376             972     540.673E-03     546.102E-03
             377             972     540.673E-03     546.102E-03
             360             972     540.673E-03     546.102E-03
             361             973     604.722E-03     610.169E-03
             377             973     604.722E-03     610.169E-03
             362             973     604.722E-03     610.169E-03
             378             973     604.722E-03     610.169E-03
             362             974     668.906E-03     674.774E-03
             363             974     668.906E-03     674.774E-03
             379             974     668.906E-03     674.774E-03
             378             974     668.906E-03     674.774E-03
             379             975     733.314E-03     739.457E-03
             363             975     733.314E-03     739.457E-03
             380             975     733.314E-03     739.457E-03
             364             975     733.314E-03     739.457E-03
             365             976     795.695E-03     803.389E-03
             364             976     795.695E-03     803.389E-03
             380             976     795.695E-03     803.389E-03
             381             976     795.695E-03     803.389E-03
             382             977     852.078E-03     863.166E-03
             365             977     852.078E-03     863.166E-03
             366             977     852.078E-03     863.166E-03
             381             977     852.078E-03     863.166E-03
             383             978     897.760E-03     911.683E-03
             367             978     897.760E-03     911.683E-03
             366             978     897.760E-03     911.683E-03
             382             978     897.760E-03     911.683E-03
             367             979     932.291E-03     945.662E-03
             368             979     932.291E-03     945.662E-03
             383             979     932.291E-03     945.662E-03
             384             979     932.291E-03     945.662E-03
             370             980     119.150E-03     127.431E-03
             369             980     119.150E-03     127.431E-03
             386             980     119.150E-03     127.431E-03
             385             980     119.150E-03     127.431E-03
             387             981     159.149E-03     177.537E-03
             371             981     159.149E-03     177.537E-03
             386             981     159.149E-03     177.537E-03
             370             981     159.149E-03     177.537E-03
             387             982     214.544E-03     232.122E-03
             372             982     214.544E-03     232.122E-03
             371             982     214.544E-03     232.122E-03
             388             982     214.544E-03     232.122E-03
             372             983     276.599E-03     290.757E-03
             388             983     276.599E-03     290.757E-03
             389             983     276.599E-03     290.757E-03
             373             983     276.599E-03     290.757E-03
             389             984     340.060E-03     353.417E-03
             374             984     340.060E-03     353.417E-03
             390             984     340.060E-03     353.417E-03
             373             984     340.060E-03     353.417E-03
             374             985     404.447E-03     417.721E-03
             390             985     404.447E-03     417.721E-03
             391             985     404.447E-03     417.721E-03
             375             985     404.447E-03     417.721E-03
             391             986     469.700E-03     483.170E-03
             392             986     469.700E-03     483.170E-03
             375             986     469.700E-03     483.170E-03
             376             986     469.700E-03     483.170E-03
             392             987     535.699E-03     549.542E-03
             393             987     535.699E-03     549.542E-03
             377             987     535.699E-03     549.542E-03
             376             987     535.699E-03     549.542E-03
             378             988     602.423E-03     616.861E-03
             393             988     602.423E-03     616.861E-03
             394             988     602.423E-03     616.861E-03
             377             988     602.423E-03     616.861E-03
             394             989     670.096E-03     685.476E-03
             378             989     670.096E-03     685.476E-03
             395             989     670.096E-03     685.476E-03
             379             989     670.096E-03     685.476E-03
             395             990     738.126E-03     755.369E-03
             396             990     738.126E-03     755.369E-03
             380             990     738.126E-03     755.369E-03
             379             990     738.126E-03     755.369E-03
             380             991     807.467E-03     826.956E-03
             396             991     807.467E-03     826.956E-03
             381             991     807.467E-03     826.956E-03
             397             991     807.467E-03     826.956E-03
             382             992     874.845E-03     897.757E-03
             381             992     874.845E-03     897.757E-03
             397             992     874.845E-03     897.757E-03
             398             992     874.845E-03     897.757E-03
             383             993     934.564E-03     960.683E-03
             382             993     934.564E-03     960.683E-03
             399             993     934.564E-03     960.683E-03
             398             993     934.564E-03     960.683E-03
             384             994     990.973E-03         1.00996
             400             994     990.973E-03         1.00996
             399             994     990.973E-03         1.00996
             383             994     990.973E-03         1.00996
             401             995     88.2486E-03     102.681E-03
             386             995     88.2486E-03     102.681E-03
             385             995     88.2486E-03     102.681E-03
             402             995     88.2486E-03     102.681E-03
             386             996     137.042E-03     159.459E-03
             403             996     137.042E-03     159.459E-03
             402             996     137.042E-03     159.459E-03
             387             996     137.042E-03     159.459E-03
             388             997     198.165E-03     221.528E-03
             387             997     198.165E-03     221.528E-03
             404             997     198.165E-03     221.528E-03
             403             997     198.165E-03     221.528E-03
             388             998     262.456E-03     284.859E-03
             404             998     262.456E-03     284.859E-03
             405             998     262.456E-03     284.859E-03
             389             998     262.456E-03     284.859E-03
             390             999     327.953E-03     349.774E-03
             406             999     327.953E-03     349.774E-03
             389             999     327.953E-03     349.774E-03
             405             999     327.953E-03     349.774E-03
             406            1000     393.935E-03     415.743E-03
             391            1000     393.935E-03     415.743E-03
             390            1000     393.935E-03     415.743E-03
             407            1000     393.935E-03     415.743E-03
             408            1001     460.319E-03     482.340E-03
             392            1001     460.319E-03     482.340E-03
             407            1001     460.319E-03     482.340E-03
             391            1001     460.319E-03     482.340E-03
             408            1002     527.231E-03     549.573E-03
             392            1002     527.231E-03     549.573E-03
             393            1002     527.231E-03     549.573E-03
             409            1002     527.231E-03     549.573E-03
             394            1003     594.637E-03     617.652E-03
             393            1003     594.637E-03     617.652E-03
             409            1003     594.637E-03     617.652E-03
             410            1003     594.637E-03     617.652E-03
             395            1004     662.820E-03     686.800E-03
             410            1004     662.820E-03     686.800E-03
             411            1004     662.820E-03     686.800E-03
             394            1004     662.820E-03     686.800E-03
             395            1005     732.308E-03     758.166E-03
             412            1005     732.308E-03     758.166E-03
             396            1005     732.308E-03     758.166E-03
             411            1005     732.308E-03     758.166E-03
             397            1006     803.498E-03     831.812E-03
             413            1006     803.498E-03     831.812E-03
             412            1006     803.498E-03     831.812E-03
             396            1006     803.498E-03     831.812E-03
             397            1007     881.819E-03     910.578E-03
             413            1007     881.819E-03     910.578E-03
             414            1007     881.819E-03     910.578E-03
             398            1007     881.819E-03     910.578E-03
             415            1008     963.717E-03     990.696E-03
             398            1008     963.717E-03     990.696E-03
             399            1008     963.717E-03     990.696E-03
             414            1008     963.717E-03     990.696E-03
             399            1009         1.03821         1.06263
             416            1009         1.03821         1.06263
             400            1009         1.03821         1.06263
             415            1009         1.03821         1.06263
             402            1010     62.0293E-03     87.8800E-03
             401            1010     62.0293E-03     87.8800E-03
             417            1010     62.0293E-03     87.8800E-03
             418            1010     62.0293E-03     87.8800E-03
             418            1011     122.081E-03     150.406E-03
             402            1011     122.081E-03     150.406E-03
             403            1011     122.081E-03     150.406E-03
             419            1011     122.081E-03     150.406E-03
             420            1012     186.493E-03     215.483E-03
             419            1012     186.493E-03     215.483E-03
             403            1012     186.493E-03     215.483E-03
             404            1012     186.493E-03     215.483E-03
             404            1013     251.466E-03     281.923E-03
             405            1013     251.466E-03     281.923E-03
             421            1013     251.466E-03     281.923E-03
             420            1013     251.466E-03     281.923E-03
             406            1014     317.249E-03     347.798E-03
             421            1014     317.249E-03     347.798E-03
             422            1014     317.249E-03     347.798E-03
             405            1014     317.249E-03     347.798E-03
             422            1015     383.219E-03     413.891E-03
             423            1015     383.219E-03     413.891E-03
             407            1015     383.219E-03     413.891E-03
             406            1015     383.219E-03     413.891E-03
             408            1016     449.321E-03     480.096E-03
             407            1016     449.321E-03     480.096E-03
             424            1016     449.321E-03     480.096E-03
             423            1016     449.321E-03     480.096E-03
             425            1017     515.468E-03     546.380E-03
             409            1017     515.468E-03     546.380E-03
             408            1017     515.468E-03     546.380E-03
             424            1017     515.468E-03     546.380E-03
             409            1018     581.924E-03     612.915E-03
             410            1018     581.924E-03     612.915E-03
             425            1018     581.924E-03     612.915E-03
             426            1018     581.924E-03     612.915E-03
             411            1019     648.605E-03     680.154E-03
             426            1019     648.605E-03     680.154E-03
             427            1019     648.605E-03     680.154E-03
             410            1019     648.605E-03     680.154E-03
             411            1020     716.775E-03     748.790E-03
             427            1020     716.775E-03     748.790E-03
             428            1020     716.775E-03     748.790E-03
             412            1020     716.775E-03     748.790E-03
             428            1021     787.810E-03     821.100E-03
             429            1021     787.810E-03     821.100E-03
             413            1021     787.810E-03     821.100E-03
             412            1021     787.810E-03     821.100E-03
             413            1022     866.187E-03     899.965E-03
             429            1022     866.187E-03     899.965E-03
             414            1022     866.187E-03     899.965E-03
             430            1022     866.187E-03     899.965E-03
             415            1023     969.329E-03     996.393E-03
             414            1023     969.329E-03     996.393E-03
             430            1023     969.329E-03     996.393E-03
             431            1023     969.329E-03     996.393E-03
             416            1024         1.08139         1.09526
             415            1024         1.08139         1.09526
             432            1024         1.08139         1.09526
             431            1024         1.08139         1.09526
             418            1025     57.0561E-03     86.9120E-03
             433            1025     57.0561E-03     86.9120E-03
             434            1025     57.0561E-03     86.9120E-03
             417            1025     57.0561E-03     86.9120E-03
             419            1026     118.193E-03     150.144E-03
             434            1026     118.193E-03     150.144E-03
             435            1026     118.193E-03     150.144E-03
             418            1026     118.193E-03     150.144E-03
             419            1027     180.228E-03     217.005E-03
             420            1027     180.228E-03     217.005E-03
             435            1027     180.228E-03     217.005E-03
             436            1027     180.228E-03     217.005E-03
             437            1028     244.240E-03     282.840E-03
             420            1028     244.240E-03     282.840E-03
             421            1028     244.240E-03     282.840E-03
             436            1028     244.240E-03     282.840E-03
             437            1029     308.596E-03     348.260E-03
             422            1029     308.596E-03     348.260E-03
             438            1029     308.596E-03     348.260E-03
             421            1029     308.596E-03     348.260E-03
             422            1030     373.212E-03     413.061E-03
             438            1030     373.212E-03     413.061E-03
             423            1030     373.212E-03     413.061E-03
             439            1030     373.212E-03     413.061E-03
             423            1031     437.698E-03     477.471E-03
             440            1031     437.698E-03     477.471E-03
             439            1031     437.698E-03     477.471E-03
             424            1031     437.698E-03     477.471E-03
             425            1032     501.993E-03     541.504E-03
             440            1032     501.993E-03     541.504E-03
             424            1032     501.993E-03     541.504E-03
             441            1032     501.993E-03     541.504E-03
             441            1033     565.974E-03     605.079E-03
             426            1033     565.974E-03     605.079E-03
             425            1033     565.974E-03     605.079E-03
             442            1033     565.974E-03     605.079E-03
             427            1034     630.332E-03     668.597E-03
             426            1034     630.332E-03     668.597E-03
             443            1034     630.332E-03     668.597E-03
             442            1034     630.332E-03     668.597E-03
             428            1035     695.259E-03     732.461E-03
             443            1035     695.259E-03     732.461E-03
             444            1035     695.259E-03     732.461E-03
             427            1035     695.259E-03     732.461E-03
             429            1036     764.111E-03     799.542E-03
             444            1036     764.111E-03     799.542E-03
             445            1036     764.111E-03     799.542E-03
             428            1036     764.111E-03     799.542E-03
             445            1037     839.244E-03     872.930E-03
             446            1037     839.244E-03     872.930E-03
             430            1037     839.244E-03     872.930E-03
             429            1037     839.244E-03     872.930E-03
             430            1038     936.263E-03     969.419E-03
             446            1038     936.263E-03     969.419E-03
             431            1038     936.263E-03     969.419E-03
             447            1038     936.263E-03     969.419E-03
             431            1039         1.08453         1.10879
             448            1039         1.08453         1.10879
             447            1039         1.08453         1.10879
             432            1039         1.08453         1.10879
             434            1040     136.552E-03     159.382E-03
             449            1040     136.552E-03     159.382E-03
             450            1040     136.552E-03     159.382E-03
             433            1040     136.552E-03     159.382E-03
             435            1041     191.033E-03     207.628E-03
             450            1041     191.033E-03     207.628E-03
             451            1041     191.033E-03     207.628E-03
             434            1041     191.033E-03     207.628E-03
             436            1042     250.470E-03     268.789E-03
             451            1042     250.470E-03     268.789E-03
             452            1042     250.470E-03     268.789E-03
             435            1042     250.470E-03     268.789E-03
             436            1043     314.957E-03     334.998E-03
             452            1043     314.957E-03     334.998E-03
             453            1043     314.957E-03     334.998E-03
             437            1043     314.957E-03     334.998E-03
             453            1044     382.283E-03     402.683E-03
             454            1044     382.283E-03     402.683E-03
             437            1044     382.283E-03     402.683E-03
             438            1044     382.283E-03     402.683E-03
             454            1045     450.918E-03     471.374E-03
             455            1045     450.918E-03     471.374E-03
             438            1045     450.918E-03     471.374E-03
             439            1045     450.918E-03     471.374E-03
             456            1046     520.089E-03     540.172E-03
             440            1046     520.089E-03     540.172E-03
             439            1046     520.089E-03     540.172E-03
             455            1046     520.089E-03     540.172E-03
             456            1047     589.058E-03     608.973E-03
             441            1047     589.058E-03     608.973E-03
             457            1047     589.058E-03     608.973E-03
             440            1047     589.058E-03     608.973E-03
             458            1048     657.791E-03     676.913E-03
             441            1048     657.791E-03     676.913E-03
             457            1048     657.791E-03     676.913E-03
             442            1048     657.791E-03     676.913E-03
             443            1049     725.704E-03     743.984E-03
             458            1049     725.704E-03     743.984E-03
             459            1049     725.704E-03     743.984E-03
             442            1049     725.704E-03     743.984E-03
             460            1050     793.601E-03     809.512E-03
             443            1050     793.601E-03     809.512E-03
             444            1050     793.601E-03     809.512E-03
             459            1050     793.601E-03     809.512E-03
             461            1051     860.102E-03     873.119E-03
             444            1051     860.102E-03     873.119E-03
             460            1051     860.102E-03     873.119E-03
             445            1051     860.102E-03     873.119E-03
             445            1052     928.590E-03     936.421E-03
             446            1052     928.590E-03     936.421E-03
             461            1052     928.590E-03     936.421E-03
             462            1052     928.590E-03     936.421E-03
             447            1053     996.143E-03         1.00123
             462            1053     996.143E-03         1.00123
             463            1053     996.143E-03         1.00123
             446            1053     996.143E-03         1.00123
             463            1054         1.08290         1.10180
             464            1054         1.08290         1.10180
             447            1054         1.08290         1.10180
             448            1054         1.08290         1.10180
             465            1055     190.117E-03     214.318E-03
             466            1055     190.117E-03     214.318E-03
             449            1055     190.117E-03     214.318E-03
             450            1055     190.117E-03     214.318E-03
             450            1056     241.186E-03     248.053E-03
             466            1056     241.186E-03     248.053E-03
             467            1056     241.186E-03     248.053E-03
             451            1056     241.186E-03     248.053E-03
             451            1057     305.169E-03     307.177E-03
             468            1057     305.169E-03     307.177E-03
             452            1057     305.169E-03     307.177E-03
             467            1057     305.169E-03     307.177E-03
             468            1058     375.428E-03     376.794E-03
             452            1058     375.428E-03     376.794E-03
             453            1058     375.428E-03     376.794E-03
             469            1058     375.428E-03     376.794E-03
             470            1059     449.307E-03     450.481E-03
             453            1059     449.307E-03     450.481E-03
             454            1059     449.307E-03     450.481E-03
             469            1059     449.307E-03     450.481E-03
             470            1060     525.333E-03     526.510E-03
             454            1060     525.333E-03     526.510E-03
             455            1060     525.333E-03     526.510E-03
             471            1060     525.333E-03     526.510E-03
             455            1061     602.463E-03     603.514E-03
             456            1061     602.463E-03     603.514E-03
             472            1061     602.463E-03     603.514E-03
             471            1061     602.463E-03     603.514E-03
             457            1062     679.963E-03     681.025E-03
             473            1062     679.963E-03     681.025E-03
             456            1062     679.963E-03     681.025E-03
             472            1062     679.963E-03     681.025E-03
             458            1063     757.665E-03     758.370E-03
             474            1063     757.665E-03     758.370E-03
             457            1063     757.665E-03     758.370E-03
             473            1063     757.665E-03     758.370E-03
             474            1064     834.784E-03     835.258E-03
             475            1064     834.784E-03     835.258E-03
             458            1064     834.784E-03     835.258E-03
             459            1064     834.784E-03     835.258E-03
             475            1065     911.240E-03     910.542E-03
             476            1065     911.240E-03     910.542E-03
             460            1065     911.240E-03     910.542E-03
             459            1065     911.240E-03     910.542E-03
             460            1066     985.362E-03     983.279E-03
             476            1066     985.362E-03     983.279E-03
             477            1066     985.362E-03     983.279E-03
             461            1066     985.362E-03     983.279E-03
             477            1067         1.05266         1.04963
             462            1067         1.05266         1.04963
             461            1067         1.05266         1.04963
             478            1067         1.05266         1.04963
             462            1068         1.10967         1.10527
             478            1068         1.10967         1.10527
             479            1068         1.10967         1.10527
             463            1068         1.10967         1.10527
             464            1069         1.14628         1.13988
             479            1069         1.14628         1.13988
             480            1069         1.14628         1.13988
             463            1069         1.14628         1.13988
             481            1070     150.967E-03     170.096E-03
             466            1070     150.967E-03     170.096E-03
             465            1070     150.967E-03     170.096E-03
             482            1070     150.967E-03     170.096E-03
             482            1071     202.203E-03     223.550E-03
             483            1071     202.203E-03     223.550E-03
             467            1071     202.203E-03     223.550E-03
             466            1071     202.203E-03     223.550E-03
             484            1072     274.772E-03     288.310E-03
             483            1072     274.772E-03     288.310E-03
             467            1072     274.772E-03     288.310E-03
             468            1072     274.772E-03     288.310E-03
             485            1073     351.810E-03     363.004E-03
             484            1073     351.810E-03     363.004E-03
             469            1073     351.810E-03     363.004E-03
             468            1073     351.810E-03     363.004E-03
             469            1074     430.519E-03     441.607E-03
             485            1074     430.519E-03     441.607E-03
             470            1074     430.519E-03     441.607E-03
             486            1074     430.519E-03     441.607E-03
             487            1075     510.617E-03     521.904E-03
             470            1075     510.617E-03     521.904E-03
             486            1075     510.617E-03     521.904E-03
             471            1075     510.617E-03     521.904E-03
             471            1076     591.523E-03     603.145E-03
             487            1076     591.523E-03     603.145E-03
             488            1076     591.523E-03     603.145E-03
             472            1076     591.523E-03     603.145E-03
             472            1077     673.285E-03     685.002E-03
             488            1077     673.285E-03     685.002E-03
             489            1077     673.285E-03     685.002E-03
             473            1077     673.285E-03     685.002E-03
             473            1078     755.567E-03     767.524E-03
             490            1078     755.567E-03     767.524E-03
             489            1078     755.567E-03     767.524E-03
             474            1078     755.567E-03     767.524E-03
             475            1079     838.743E-03     850.894E-03
             490            1079     838.743E-03     850.894E-03
             491            1079     838.743E-03     850.894E-03
             474            1079     838.743E-03     850.894E-03
             475            1080     922.072E-03     935.166E-03
             476            1080     922.072E-03     935.166E-03
             492            1080     922.072E-03     935.166E-03
             491            1080     922.072E-03     935.166E-03
             477            1081         1.00655         1.02088
             492            1081         1.00655         1.02088
             476            1081         1.00655         1.02088
             493            1081         1.00655         1.02088
             477            1082         1.08828         1.10617
             494            1082         1.08828         1.10617
             493            1082         1.08828         1.10617
             478            1082         1.08828         1.10617
             495            1083         1.15975         1.18357
             478            1083         1.15975         1.18357
             479            1083         1.15975         1.18357
             494            1083         1.15975         1.18357
             479            1084         1.22062         1.23748
             495            1084         1.22062         1.23748
             480            1084         1.22062         1.23748
             496            1084         1.22062         1.23748
             481            1085     110.971E-03     128.982E-03
             498            1085     110.971E-03     128.982E-03
             482            1085     110.971E-03     128.982E-03
             497            1085     110.971E-03     128.982E-03
             499            1086     173.340E-03     202.131E-03
             483            1086     173.340E-03     202.131E-03
             498            1086     173.340E-03     202.131E-03
             482            1086     173.340E-03     202.131E-03
             483            1087     251.364E-03     276.239E-03
             484            1087     251.364E-03     276.239E-03
             500            1087     251.364E-03     276.239E-03
             499            1087     251.364E-03     276.239E-03
             485            1088     333.004E-03     355.195E-03
             501            1088     333.004E-03     355.195E-03
             484            1088     333.004E-03     355.195E-03
             500            1088     333.004E-03     355.195E-03
             486            1089     415.084E-03     437.160E-03
             501            1089     415.084E-03     437.160E-03
             502            1089     415.084E-03     437.160E-03
             485            1089     415.084E-03     437.160E-03
             486            1090     497.659E-03     519.999E-03
             503            1090     497.659E-03     519.999E-03
             502            1090     497.659E-03     519.999E-03
             487            1090     497.659E-03     519.999E-03
             503            1091     580.921E-03     603.517E-03
             504            1091     580.921E-03     603.517E-03
             488            1091     580.921E-03     603.517E-03
             487            1091     580.921E-03     603.517E-03
             488            1092     664.713E-03     687.579E-03
             505            1092     664.713E-03     687.579E-03
             489            1092     664.713E-03     687.579E-03
             504            1092     664.713E-03     687.579E-03
             490            1093     749.246E-03     772.414E-03
             505            1093     749.246E-03     772.414E-03
             506            1093     749.246E-03     772.414E-03
             489            1093     749.246E-03     772.414E-03
             490            1094     834.451E-03     858.327E-03
             506            1094     834.451E-03     858.327E-03
             491            1094     834.451E-03     858.327E-03
             507            1094     834.451E-03     858.327E-03
             491            1095     921.029E-03     946.457E-03
             492            1095     921.029E-03     946.457E-03
             508            1095     921.029E-03     946.457E-03
             507            1095     921.029E-03     946.457E-03
             508            1096         1.00831         1.03705
             492            1096         1.00831         1.03705
             493            1096         1.00831         1.03705
             509            1096         1.00831         1.03705
             493            1097         1.10214         1.13307
             509            1097         1.10214         1.13307
             494            1097         1.10214         1.13307
             510            1097         1.10214         1.13307
             495            1098         1.19547         1.22767
             511            1098         1.19547         1.22767
             510            1098         1.19547         1.22767
             494            1098         1.19547         1.22767
             511            1099         1.27502         1.30941
             512            1099         1.27502         1.30941
             496            1099         1.27502         1.30941
             495            1099         1.27502         1.30941
             514            1100     76.9239E-03     113.119E-03
             498            1100     76.9239E-03     113.119E-03
             497            1100     76.9239E-03     113.119E-03
             513            1100     76.9239E-03     113.119E-03
             499            1101     155.050E-03     188.030E-03
             514            1101     155.050E-03     188.030E-03
             515            1101     155.050E-03     188.030E-03
             498            1101     155.050E-03     188.030E-03
             499            1102     236.564E-03     270.687E-03
             515            1102     236.564E-03     270.687E-03
             516            1102     236.564E-03     270.687E-03
             500            1102     236.564E-03     270.687E-03
             501            1103     319.386E-03     353.186E-03
             516            1103     319.386E-03     353.186E-03
             517            1103     319.386E-03     353.186E-03
             500            1103     319.386E-03     353.186E-03
             501            1104     402.616E-03     436.330E-03
             517            1104     402.616E-03     436.330E-03
             518            1104     402.616E-03     436.330E-03
             502            1104     402.616E-03     436.330E-03
             502            1105     485.990E-03     519.909E-03
             519            1105     485.990E-03     519.909E-03
             518            1105     485.990E-03     519.909E-03
             503            1105     485.990E-03     519.909E-03
             503            1106     569.535E-03     603.613E-03
             519            1106     569.535E-03     603.613E-03
             504            1106     569.535E-03     603.613E-03
             520            1106     569.535E-03     603.613E-03
             504            1107     653.289E-03     687.457E-03
             521            1107     653.289E-03     687.457E-03
             505            1107     653.289E-03     687.457E-03
             520            1107     653.289E-03     687.457E-03
             506            1108     737.316E-03     771.585E-03
             505            1108     737.316E-03     771.585E-03
             521            1108     737.316E-03     771.585E-03
             522            1108     737.316E-03     771.585E-03
             507            1109     821.604E-03     856.282E-03
             522            1109     821.604E-03     856.282E-03
             523            1109     821.604E-03     856.282E-03
             506            1109     821.604E-03     856.282E-03
             523            1110     906.693E-03     942.225E-03
             524            1110     906.693E-03     942.225E-03
             508            1110     906.693E-03     942.225E-03
             507            1110     906.693E-03     942.225E-03
             509            1111     993.829E-03         1.03138
             524            1111     993.829E-03         1.03138
             525            1111     993.829E-03         1.03138
             508            1111     993.829E-03         1.03138
             525            1112         1.08585         1.12577
             526            1112         1.08585         1.12577
             510            1112         1.08585         1.12577
             509            1112         1.08585         1.12577
             527            1113         1.20062         1.23624
             511            1113         1.20062         1.23624
             510            1113         1.20062         1.23624
             526            1113         1.20062         1.23624
             512            1114         1.32229         1.34028
             511            1114         1.32229         1.34028
             528            1114         1.32229         1.34028
             527            1114         1.32229         1.34028
             530            1115     73.3930E-03     111.342E-03
             529            1115     73.3930E-03     111.342E-03
             514            1115     73.3930E-03     111.342E-03
             513            1115     73.3930E-03     111.342E-03
             531            1116     150.911E-03     189.942E-03
             515            1116     150.911E-03     189.942E-03
             530            1116     150.911E-03     189.942E-03
             514            1116     150.911E-03     189.942E-03
             516            1117     230.506E-03     273.696E-03
             532            1117     230.506E-03     273.696E-03
             531            1117     230.506E-03     273.696E-03
             515            1117     230.506E-03     273.696E-03
             533            1118     311.695E-03     357.132E-03
             532            1118     311.695E-03     357.132E-03
             516            1118     311.695E-03     357.132E-03
             517            1118     311.695E-03     357.132E-03
             533            1119     393.793E-03     439.538E-03
             518            1119     393.793E-03     439.538E-03
             517            1119     393.793E-03     439.538E-03
             534            1119     393.793E-03     439.538E-03
             518            1120     476.074E-03     521.894E-03
             519            1120     476.074E-03     521.894E-03
             534            1120     476.074E-03     521.894E-03
             535            1120     476.074E-03     521.894E-03
             520            1121     558.123E-03     603.837E-03
             519            1121     558.123E-03     603.837E-03
             535            1121     558.123E-03     603.837E-03
             536            1121     558.123E-03     603.837E-03
             520            1122     639.892E-03     685.513E-03
             521            1122     639.892E-03     685.513E-03
             537            1122     639.892E-03     685.513E-03
             536            1122     639.892E-03     685.513E-03
             521            1123     721.142E-03     766.521E-03
             538            1123     721.142E-03     766.521E-03
             522            1123     721.142E-03     766.521E-03
             537            1123     721.142E-03     766.521E-03
             522            1124     802.192E-03     847.171E-03
             523            1124     802.192E-03     847.171E-03
             538            1124     802.192E-03     847.171E-03
             539            1124     802.192E-03     847.171E-03
             539            1125     882.992E-03     927.198E-03
             540            1125     882.992E-03     927.198E-03
             523            1125     882.992E-03     927.198E-03
             524            1125     882.992E-03     927.198E-03
             540            1126     966.278E-03         1.00892
             525            1126     966.278E-03         1.00892
             524            1126     966.278E-03         1.00892
             541            1126     966.278E-03         1.00892
             525            1127         1.05330         1.09465
             526            1127         1.05330         1.09465
             542            1127         1.05330         1.09465
             541            1127         1.05330         1.09465
             526            1128         1.16112         1.20054
             542            1128         1.16112         1.20054
             543            1128         1.16112         1.20054
             527            1128         1.16112         1.20054
             527            1129         1.31919         1.34789
             528            1129         1.31919         1.34789
             544            1129         1.31919         1.34789
             543            1129         1.31919         1.34789
             994            1451     146.126E-03     162.407E-03
            1010            1451     146.126E-03     162.407E-03
            1011            1451     146.126E-03     162.407E-03
             995            1451     146.126E-03     162.407E-03
             996            1452     224.830E-03     229.520E-03
            1011            1452     224.830E-03     229.520E-03
            1012            1452     224.830E-03     229.520E-03
             995            1452     224.830E-03     229.520E-03
             997            1453     309.080E-03     311.998E-03
            1012            1453     309.080E-03     311.998E-03
            1013            1453     309.080E-03     311.998E-03
             996            1453     309.080E-03     311.998E-03
             997            1454     396.174E-03     399.033E-03
            1014            1454     396.174E-03     399.033E-03
            1013            1454     396.174E-03     399.033E-03
             998            1454     396.174E-03     399.033E-03
             999            1455     485.216E-03     488.090E-03
            1014            1455     485.216E-03     488.090E-03
            1015            1455     485.216E-03     488.090E-03
             998            1455     485.216E-03     488.090E-03
            1015            1456     574.948E-03     578.243E-03
            1016            1456     574.948E-03     578.243E-03
            1000            1456     574.948E-03     578.243E-03
             999            1456     574.948E-03     578.243E-03
            1000            1457     665.147E-03     668.755E-03
            1017            1457     665.147E-03     668.755E-03
            1001            1457     665.147E-03     668.755E-03
            1016            1457     665.147E-03     668.755E-03
            1001            1458     755.283E-03     759.695E-03
            1017            1458     755.283E-03     759.695E-03
            1002            1458     755.283E-03     759.695E-03
            1018            1458     755.283E-03     759.695E-03
            1019            1459     845.431E-03     850.139E-03
            1002            1459     845.431E-03     850.139E-03
            1003            1459     845.431E-03     850.139E-03
            1018            1459     845.431E-03     850.139E-03
            1003            1460     935.003E-03     940.697E-03
            1020            1460     935.003E-03     940.697E-03
            1019            1460     935.003E-03     940.697E-03
            1004            1460     935.003E-03     940.697E-03
            1004            1461         1.02403         1.02983
            1021            1461         1.02403         1.02983
            1020            1461         1.02403         1.02983
            1005            1461         1.02403         1.02983
            1005            1462         1.11232         1.11830
            1021            1462         1.11232         1.11830
            1022            1462         1.11232         1.11830
            1006            1462         1.11232         1.11830
            1022            1463         1.19814         1.20381
            1023            1463         1.19814         1.20381
            1007            1463         1.19814         1.20381
            1006            1463         1.19814         1.20381
            1023            1464         1.27499         1.28041
            1008            1464         1.27499         1.28041
            1007            1464         1.27499         1.28041
            1024            1464         1.27499         1.28041
            1009            1465         1.33873         1.34694
            1024            1465         1.33873         1.34694
            1008            1465         1.33873         1.34694
            1025            1465         1.33873         1.34694
            1027            1466     185.650E-03     204.708E-03
            1010            1466     185.650E-03     204.708E-03
            1011            1466     185.650E-03     204.708E-03
            1026            1466     185.650E-03     204.708E-03
            1012            1467     256.433E-03     255.707E-03
            1028            1467     256.433E-03     255.707E-03
            1027            1467     256.433E-03     255.707E-03
            1011            1467     256.433E-03     255.707E-03
            1029            1468     343.426E-03     339.077E-03
            1013            1468     343.426E-03     339.077E-03
            1012            1468     343.426E-03     339.077E-03
            1028            1468     343.426E-03     339.077E-03
            1014            1469     433.973E-03     430.074E-03
            1030            1469     433.973E-03     430.074E-03
            1029            1469     433.973E-03     430.074E-03
            1013            1469     433.973E-03     430.074E-03
            1014            1470     527.213E-03     523.630E-03
            1015            1470     527.213E-03     523.630E-03
            1030            1470     527.213E-03     523.630E-03
            1031            1470     527.213E-03     523.630E-03
            1031            1471     621.227E-03     618.490E-03
            1015            1471     621.227E-03     618.490E-03
            1016            1471     621.227E-03     618.490E-03
            1032            1471     621.227E-03     618.490E-03
            1017            1472     716.154E-03     714.045E-03
            1032            1472     716.154E-03     714.045E-03
            1016            1472     716.154E-03     714.045E-03
            1033            1472     716.154E-03     714.045E-03
            1034            1473     811.116E-03     809.907E-03
            1018            1473     811.116E-03     809.907E-03
            1017            1473     811.116E-03     809.907E-03
            1033            1473     811.116E-03     809.907E-03
            1035            1474     906.355E-03     905.722E-03
            1018            1474     906.355E-03     905.722E-03
            1034            1474     906.355E-03     905.722E-03
            1019            1474     906.355E-03     905.722E-03
            1035            1475         1.00104         1.00145
            1020            1475         1.00104         1.00145
            1036            1475         1.00104         1.00145
            1019            1475         1.00104         1.00145
            1036            1476         1.09602         1.09680
            1020            1476         1.09602         1.09680
            1021            1476         1.09602         1.09680
            1037            1476         1.09602         1.09680
            1038            1477         1.18978         1.19186
            1022            1477         1.18978         1.19186
            1021            1477         1.18978         1.19186
            1037            1477         1.18978         1.19186
            1039            1478         1.28386         1.28590
            1038            1478         1.28386         1.28590
            1023            1478         1.28386         1.28590
            1022            1478         1.28386         1.28590
            1023            1479         1.37009         1.37277
            1024            1479         1.37009         1.37277
            1040            1479         1.37009         1.37277
            1039            1479         1.37009         1.37277
            1024            1480         1.42746         1.43553
            1025            1480         1.42746         1.43553
            1041            1480         1.42746         1.43553
            1040            1480         1.42746         1.43553
            1043            1481     143.666E-03     173.479E-03
            1042            1481     143.666E-03     173.479E-03
            1027            1481     143.666E-03     173.479E-03
            1026            1481     143.666E-03     173.479E-03
            1044            1482     213.356E-03     244.815E-03
            1043            1482     213.356E-03     244.815E-03
            1027            1482     213.356E-03     244.815E-03
            1028            1482     213.356E-03     244.815E-03
            1045            1483     307.179E-03     333.771E-03
            1029            1483     307.179E-03     333.771E-03
            1028            1483     307.179E-03     333.771E-03
            1044            1483     307.179E-03     333.771E-03
            1030            1484     403.466E-03     430.016E-03
            1029            1484     403.466E-03     430.016E-03
            1046            1484     403.466E-03     430.016E-03
            1045            1484     403.466E-03     430.016E-03
            1031            1485     499.530E-03     526.978E-03
            1047            1485     499.530E-03     526.978E-03
            1030            1485     499.530E-03     526.978E-03
            1046            1485     499.530E-03     526.978E-03
            1032            1486     596.445E-03     624.167E-03
            1031            1486     596.445E-03     624.167E-03
            1047            1486     596.445E-03     624.167E-03
            1048            1486     596.445E-03     624.167E-03
            1049            1487     693.669E-03     721.554E-03
            1048            1487     693.669E-03     721.554E-03
            1033            1487     693.669E-03     721.554E-03
            1032            1487     693.669E-03     721.554E-03
            1033            1488     791.305E-03     819.018E-03
            1049            1488     791.305E-03     819.018E-03
            1050            1488     791.305E-03     819.018E-03
            1034            1488     791.305E-03     819.018E-03
            1051            1489     889.092E-03     916.903E-03
            1035            1489     889.092E-03     916.903E-03
            1050            1489     889.092E-03     916.903E-03
            1034            1489     889.092E-03     916.903E-03
            1052            1490     987.437E-03         1.01498
            1035            1490     987.437E-03         1.01498
            1036            1490     987.437E-03         1.01498
            1051            1490     987.437E-03         1.01498
            1036            1491         1.08632         1.11415
            1053            1491         1.08632         1.11415
            1052            1491         1.08632         1.11415
            1037            1491         1.08632         1.11415
            1038            1492         1.18614         1.21485
            1054            1492         1.18614         1.21485
            1053            1492         1.18614         1.21485
            1037            1492         1.18614         1.21485
            1038            1493         1.28708         1.31844
            1054            1493         1.28708         1.31844
            1039            1493         1.28708         1.31844
            1055            1493         1.28708         1.31844
            1040            1494         1.40112         1.43332
            1056            1494         1.40112         1.43332
            1055            1494         1.40112         1.43332
            1039            1494         1.40112         1.43332
            1041            1495         1.50940         1.52708
            1040            1495         1.50940         1.52708
            1056            1495         1.50940         1.52708
            1057            1495         1.50940         1.52708
            1043            1496     114.551E-03     161.838E-03
            1058            1496     114.551E-03     161.838E-03
            1059            1496     114.551E-03     161.838E-03
            1042            1496     114.551E-03     161.838E-03
            1059            1497     189.635E-03     251.195E-03
            1043            1497     189.635E-03     251.195E-03
            1044            1497     189.635E-03     251.195E-03
            1060            1497     189.635E-03     251.195E-03
            1060            1498     283.652E-03     344.404E-03
            1061            1498     283.652E-03     344.404E-03
            1045            1498     283.652E-03     344.404E-03
            1044            1498     283.652E-03     344.404E-03
            1062            1499     381.303E-03     441.284E-03
            1046            1499     381.303E-03     441.284E-03
            1045            1499     381.303E-03     441.284E-03
            1061            1499     381.303E-03     441.284E-03
            1047            1500     478.951E-03     538.426E-03
            1062            1500     478.951E-03     538.426E-03
            1063            1500     478.951E-03     538.426E-03
            1046            1500     478.951E-03     538.426E-03
            1063            1501     576.938E-03     635.620E-03
            1064            1501     576.938E-03     635.620E-03
            1048            1501     576.938E-03     635.620E-03
            1047            1501     576.938E-03     635.620E-03
            1065            1502     674.807E-03     732.527E-03
            1064            1502     674.807E-03     732.527E-03
            1049            1502     674.807E-03     732.527E-03
            1048            1502     674.807E-03     732.527E-03
            1049            1503     772.499E-03     829.575E-03
            1050            1503     772.499E-03     829.575E-03
            1065            1503     772.499E-03     829.575E-03
            1066            1503     772.499E-03     829.575E-03
            1066            1504     870.108E-03     926.115E-03
            1067            1504     870.108E-03     926.115E-03
            1050            1504     870.108E-03     926.115E-03
            1051            1504     870.108E-03     926.115E-03
            1068            1505     967.321E-03         1.02277
            1067            1505     967.321E-03         1.02277
            1051            1505     967.321E-03         1.02277
            1052            1505     967.321E-03         1.02277
            1068            1506         1.06411         1.11842
            1069            1506         1.06411         1.11842
            1053            1506         1.06411         1.11842
            1052            1506         1.06411         1.11842
            1053            1507         1.16087         1.21432
            1069            1507         1.16087         1.21432
            1054            1507         1.16087         1.21432
            1070            1507         1.16087         1.21432
            1071            1508         1.25755         1.31074
            1055            1508         1.25755         1.31074
            1054            1508         1.25755         1.31074
            1070            1508         1.25755         1.31074
            1056            1509         1.36675         1.41856
            1055            1509         1.36675         1.41856
            1071            1509         1.36675         1.41856
            1072            1509         1.36675         1.41856
            1073            1510         1.51475         1.55720
            1072            1510         1.51475         1.55720
            1056            1510         1.51475         1.55720
            1057            1510         1.51475         1.55720
            1753            2102     189.432E-03     212.222E-03
            1770            2102     189.432E-03     212.222E-03
            1754            2102     189.432E-03     212.222E-03
            1769            2102     189.432E-03     212.222E-03
            1754            2103     247.366E-03     275.329E-03
            1755            2103     247.366E-03     275.329E-03
            1770            2103     247.366E-03     275.329E-03
            1771            2103     247.366E-03     275.329E-03
            1755            2104     326.471E-03     354.656E-03
            1756            2104     326.471E-03     354.656E-03
            1772            2104     326.471E-03     354.656E-03
            1771            2104     326.471E-03     354.656E-03
            1757            2105     411.505E-03     439.368E-03
            1772            2105     411.505E-03     439.368E-03
            1756            2105     411.505E-03     439.368E-03
            1773            2105     411.505E-03     439.368E-03
            1773            2106     499.641E-03     527.070E-03
            1758            2106     499.641E-03     527.070E-03
            1757            2106     499.641E-03     527.070E-03
            1774            2106     499.641E-03     527.070E-03
            1774            2107     589.174E-03     616.486E-03
            1758            2107     589.174E-03     616.486E-03
            1759            2107     589.174E-03     616.486E-03
            1775            2107     589.174E-03     616.486E-03
            1759            2108     679.830E-03     706.649E-03
            1760            2108     679.830E-03     706.649E-03
            1776            2108     679.830E-03     706.649E-03
            1775            2108     679.830E-03     706.649E-03
            1760            2109     770.607E-03     797.918E-03
            1761            2109     770.607E-03     797.918E-03
            1776            2109     770.607E-03     797.918E-03
            1777            2109     770.607E-03     797.918E-03
            1761            2110     862.619E-03     888.780E-03
            1777            2110     862.619E-03     888.780E-03
            1778            2110     862.619E-03     888.780E-03
            1762            2110     862.619E-03     888.780E-03
            1762            2111     953.608E-03     981.345E-03
            1779            2111     953.608E-03     981.345E-03
            1778            2111     953.608E-03     981.345E-03
            1763            2111     953.608E-03     981.345E-03
            1763            2112         1.04678         1.07216
            1764            2112         1.04678         1.07216
            1780            2112         1.04678         1.07216
            1779            2112         1.04678         1.07216
            1765            2113         1.13773         1.16583
            1781            2113         1.13773         1.16583
            1780            2113         1.13773         1.16583
            1764            2113         1.13773         1.16583
            1766            2114         1.23068         1.25623
            1765            2114         1.23068         1.25623
            1781            2114         1.23068         1.25623
            1782            2114         1.23068         1.25623
            1767            2115         1.32375         1.34939
            1783            2115         1.32375         1.34939
            1782            2115         1.32375         1.34939
            1766            2115         1.32375         1.34939
            1768            2116         1.40761          1.4375
            1783            2116         1.40761          1.4375
            1784            2116         1.40761          1.4375
            1767            2116         1.40761          1.4375
            1769            2117     177.828E-03     186.686E-03
            1786            2117     177.828E-03     186.686E-03
            1770            2117     177.828E-03     186.686E-03
            1785            2117     177.828E-03     186.686E-03
            1770            2118     235.766E-03     249.782E-03
            1786            2118     235.766E-03     249.782E-03
            1787            2118     235.766E-03     249.782E-03
            1771            2118     235.766E-03     249.782E-03
            1788            2119     307.378E-03     321.675E-03
            1771            2119     307.378E-03     321.675E-03
            1772            2119     307.378E-03     321.675E-03
            1787            2119     307.378E-03     321.675E-03
            1772            2120     386.585E-03     399.094E-03
            1773            2120     386.585E-03     399.094E-03
            1789            2120     386.585E-03     399.094E-03
            1788            2120     386.585E-03     399.094E-03
            1773            2121     468.160E-03     479.793E-03
            1789            2121     468.160E-03     479.793E-03
            1774            2121     468.160E-03     479.793E-03
            1790            2121     468.160E-03     479.793E-03
            1790            2122     550.696E-03     562.222E-03
            1774            2122     550.696E-03     562.222E-03
            1775            2122     550.696E-03     562.222E-03
            1791            2122     550.696E-03     562.222E-03
            1776            2123     634.403E-03     645.256E-03
            1791            2123     634.403E-03     645.256E-03
            1775            2123     634.403E-03     645.256E-03
            1792            2123     634.403E-03     645.256E-03
            1793            2124     718.109E-03     729.358E-03
            1776            2124     718.109E-03     729.358E-03
            1777            2124     718.109E-03     729.358E-03
            1792            2124     718.109E-03     729.358E-03
            1777            2125     802.970E-03     813.111E-03
            1794            2125     802.970E-03     813.111E-03
            1778            2125     802.970E-03     813.111E-03
            1793            2125     802.970E-03     813.111E-03
            1794            2126     886.872E-03     898.181E-03
            1779            2126     886.872E-03     898.181E-03
            1778            2126     886.872E-03     898.181E-03
            1795            2126     886.872E-03     898.181E-03
            1780            2127     972.453E-03     982.003E-03
            1795            2127     972.453E-03     982.003E-03
            1779            2127     972.453E-03     982.003E-03
            1796            2127     972.453E-03     982.003E-03
            1796            2128         1.05628         1.06743
            1780            2128         1.05628         1.06743
            1781            2128         1.05628         1.06743
            1797            2128         1.05628         1.06743
            1798            2129         1.13883         1.14749
            1797            2129         1.13883         1.14749
            1782            2129         1.13883         1.14749
            1781            2129         1.13883         1.14749
            1799            2130         1.22915         1.23759
            1782            2130         1.22915         1.23759
            1783            2130         1.22915         1.23759
            1798            2130         1.22915         1.23759
            1800            2131         1.32852         1.34727
            1799            2131         1.32852         1.34727
            1783            2131         1.32852         1.34727
            1784            2131         1.32852         1.34727
            1802            2132     155.343E-03     197.197E-03
            1786            2132     155.343E-03     197.197E-03
            1801            2132     155.343E-03     197.197E-03
            1785            2132     155.343E-03     197.197E-03
            1786            2133     192.009E-03     251.872E-03
            1787            2133     192.009E-03     251.872E-03
            1803            2133     192.009E-03     251.872E-03
            1802            2133     192.009E-03     251.872E-03
            1787            2134     253.664E-03     319.586E-03
            1804            2134     253.664E-03     319.586E-03
            1788            2134     253.664E-03     319.586E-03
            1803            2134     253.664E-03     319.586E-03
            1805            2135     324.505E-03     393.074E-03
            1788            2135     324.505E-03     393.074E-03
            1789            2135     324.505E-03     393.074E-03
            1804            2135     324.505E-03     393.074E-03
            1789            2136     398.587E-03     467.984E-03
            1806            2136     398.587E-03     467.984E-03
            1790            2136     398.587E-03     467.984E-03
            1805            2136     398.587E-03     467.984E-03
            1806            2137     473.921E-03     544.085E-03
            1807            2137     473.921E-03     544.085E-03
            1791            2137     473.921E-03     544.085E-03
            1790            2137     473.921E-03     544.085E-03
            1808            2138     550.315E-03     620.626E-03
            1807            2138     550.315E-03     620.626E-03
            1792            2138     550.315E-03     620.626E-03
            1791            2138     550.315E-03     620.626E-03
            1809            2139     627.062E-03     697.902E-03
            1792            2139     627.062E-03     697.902E-03
            1808            2139     627.062E-03     697.902E-03
            1793            2139     627.062E-03     697.902E-03
            1809            2140     704.466E-03     775.097E-03
            1793            2140     704.466E-03     775.097E-03
            1794            2140     704.466E-03     775.097E-03
            1810            2140     704.466E-03     775.097E-03
            1811            2141     781.934E-03     853.064E-03
            1810            2141     781.934E-03     853.064E-03
            1794            2141     781.934E-03     853.064E-03
            1795            2141     781.934E-03     853.064E-03
            1796            2142     859.848E-03     930.481E-03
            1812            2142     859.848E-03     930.481E-03
            1811            2142     859.848E-03     930.481E-03
            1795            2142     859.848E-03     930.481E-03
            1812            2143     938.220E-03         1.00914
            1813            2143     938.220E-03         1.00914
            1797            2143     938.220E-03         1.00914
            1796            2143     938.220E-03         1.00914
            1798            2144         1.01442         1.08611
            1814            2144         1.01442         1.08611
            1813            2144         1.01442         1.08611
            1797            2144         1.01442         1.08611
            1814            2145         1.09922         1.17011
            1798            2145         1.09922         1.17011
            1799            2145         1.09922         1.17011
            1815            2145         1.09922         1.17011
            1816            2146         1.23670         1.29828
            1800            2146         1.23670         1.29828
            1799            2146         1.23670         1.29828
            1815            2146         1.23670         1.29828
            1817            2147     218.997E-03     216.446E-03
            1818            2147     218.997E-03     216.446E-03
            1801            2147     218.997E-03     216.446E-03
            1802            2147     218.997E-03     216.446E-03
            1818            2148     264.206E-03     248.774E-03
            1802            2148     264.206E-03     248.774E-03
            1819            2148     264.206E-03     248.774E-03
            1803            2148     264.206E-03     248.774E-03
            1804            2149     324.884E-03     303.855E-03
            1820            2149     324.884E-03     303.855E-03
            1803            2149     324.884E-03     303.855E-03
            1819            2149     324.884E-03     303.855E-03
            1821            2150     392.320E-03     370.034E-03
            1820            2150     392.320E-03     370.034E-03
            1804            2150     392.320E-03     370.034E-03
            1805            2150     392.320E-03     370.034E-03
            1805            2151     463.528E-03     439.970E-03
            1822            2151     463.528E-03     439.970E-03
            1821            2151     463.528E-03     439.970E-03
            1806            2151     463.528E-03     439.970E-03
            1806            2152     537.000E-03     512.385E-03
            1823            2152     537.000E-03     512.385E-03
            1822            2152     537.000E-03     512.385E-03
            1807            2152     537.000E-03     512.385E-03
            1824            2153     611.529E-03     586.514E-03
            1807            2153     611.529E-03     586.514E-03
            1823            2153     611.529E-03     586.514E-03
            1808            2153     611.529E-03     586.514E-03
            1825            2154     687.088E-03     661.460E-03
            1824            2154     687.088E-03     661.460E-03
            1808            2154     687.088E-03     661.460E-03
            1809            2154     687.088E-03     661.460E-03
            1826            2155     762.843E-03     737.255E-03
            1809            2155     762.843E-03     737.255E-03
            1810            2155     762.843E-03     737.255E-03
            1825            2155     762.843E-03     737.255E-03
            1810            2156     839.250E-03     813.056E-03
            1811            2156     839.250E-03     813.056E-03
            1826            2156     839.250E-03     813.056E-03
            1827            2156     839.250E-03     813.056E-03
            1811            2157     915.035E-03     889.095E-03
            1827            2157     915.035E-03     889.095E-03
            1828            2157     915.035E-03     889.095E-03
            1812            2157     915.035E-03     889.095E-03
            1828            2158     991.640E-03     964.915E-03
            1812            2158     991.640E-03     964.915E-03
            1813            2158     991.640E-03     964.915E-03
            1829            2158     991.640E-03     964.915E-03
            1814            2159         1.06787         1.04218
            1829            2159         1.06787         1.04218
            1813            2159         1.06787         1.04218
            1830            2159         1.06787         1.04218
            1814            2160         1.14514         1.11927
            1815            2160         1.14514         1.11927
            1830            2160         1.14514         1.11927
            1831            2160         1.14514         1.11927
            1816            2161         1.16822         1.13207
            1831            2161         1.16822         1.13207
            1815            2161         1.16822         1.13207
            1832            2161         1.16822         1.13207
            2273            2468     282.118E-06     302.902E-06
            2289            2468     282.118E-06     302.902E-06
            2274            2468     282.118E-06     302.902E-06
            2290            2468     282.118E-06     302.902E-06
            2275            2469     213.884E-06     238.427E-06
            2290            2469     213.884E-06     238.427E-06
            2291            2469     213.884E-06     238.427E-06
            2274            2469     213.884E-06     238.427E-06
            2291            2470     190.615E-06     215.088E-06
            2292            2470     190.615E-06     215.088E-06
            2276            2470     190.615E-06     215.088E-06
            2275            2470     190.615E-06     215.088E-06
            2292            2471     183.562E-06     207.212E-06
            2293            2471     183.562E-06     207.212E-06
            2277            2471     183.562E-06     207.212E-06
            2276            2471     183.562E-06     207.212E-06
            2293            2472     177.760E-06     200.412E-06
            2277            2472     177.760E-06     200.412E-06
            2278            2472     177.760E-06     200.412E-06
            2294            2472     177.760E-06     200.412E-06
            2294            2473     172.222E-06     194.264E-06
            2279            2473     172.222E-06     194.264E-06
            2295            2473     172.222E-06     194.264E-06
            2278            2473     172.222E-06     194.264E-06
            2279            2474     166.536E-06     187.867E-06
            2296            2474     166.536E-06     187.867E-06
            2280            2474     166.536E-06     187.867E-06
            2295            2474     166.536E-06     187.867E-06
            2296            2475     161.400E-06     181.816E-06
            2281            2475     161.400E-06     181.816E-06
            2297            2475     161.400E-06     181.816E-06
            2280            2475     161.400E-06     181.816E-06
            2297            2476     156.756E-06     176.029E-06
            2282            2476     156.756E-06     176.029E-06
            2298            2476     156.756E-06     176.029E-06
            2281            2476     156.756E-06     176.029E-06
            2282            2477     153.044E-06     170.710E-06
            2299            2477     153.044E-06     170.710E-06
            2298            2477     153.044E-06     170.710E-06
            2283            2477     153.044E-06     170.710E-06
            2284            2478     150.076E-06     165.925E-06
            2283            2478     150.076E-06     165.925E-06
            2300            2478     150.076E-06     165.925E-06
            2299            2478     150.076E-06     165.925E-06
            2301            2479     148.214E-06     161.525E-06
            2284            2479     148.214E-06     161.525E-06
            2285            2479     148.214E-06     161.525E-06
            2300            2479     148.214E-06     161.525E-06
            2302            2480     146.864E-06     157.378E-06
            2285            2480     146.864E-06     157.378E-06
            2301            2480     146.864E-06     157.378E-06
            2286            2480     146.864E-06     157.378E-06
            2303            2481     144.762E-06     156.179E-06
            2286            2481     144.762E-06     156.179E-06
            2287            2481     144.762E-06     156.179E-06
            2302            2481     144.762E-06     156.179E-06
            2287            2482     144.224E-06     155.891E-06
            2288            2482     144.224E-06     155.891E-06
            2303            2482     144.224E-06     155.891E-06
            2304            2482     144.224E-06     155.891E-06
            2289            2483     236.398E-06     240.371E-06
            2305            2483     236.398E-06     240.371E-06
            2290            2483     236.398E-06     240.371E-06
            2306            2483     236.398E-06     240.371E-06
            2307            2484     214.131E-06     225.941E-06
            2306            2484     214.131E-06     225.941E-06
            2290            2484     214.131E-06     225.941E-06
            2291            2484     214.131E-06     225.941E-06
            2307            2485     202.304E-06     217.402E-06
            2292            2485     202.304E-06     217.402E-06
            2308            2485     202.304E-06     217.402E-06
            2291            2485     202.304E-06     217.402E-06
            2309            2486     196.461E-06     211.155E-06
            2293            2486     196.461E-06     211.155E-06
            2292            2486     196.461E-06     211.155E-06
            2308            2486     196.461E-06     211.155E-06
            2309            2487     189.696E-06     203.315E-06
            2310            2487     189.696E-06     203.315E-06
            2293            2487     189.696E-06     203.315E-06
            2294            2487     189.696E-06     203.315E-06
            2294            2488     182.080E-06     195.681E-06
            2310            2488     182.080E-06     195.681E-06
            2311            2488     182.080E-06     195.681E-06
            2295            2488     182.080E-06     195.681E-06
            2295            2489     175.694E-06     188.726E-06
            2312            2489     175.694E-06     188.726E-06
            2296            2489     175.694E-06     188.726E-06
            2311            2489     175.694E-06     188.726E-06
            2296            2490     169.814E-06     182.449E-06
            2312            2490     169.814E-06     182.449E-06
            2313            2490     169.814E-06     182.449E-06
            2297            2490     169.814E-06     182.449E-06
            2314            2491     164.966E-06     176.968E-06
            2313            2491     164.966E-06     176.968E-06
            2298            2491     164.966E-06     176.968E-06
            2297            2491     164.966E-06     176.968E-06
            2298            2492     160.917E-06     172.057E-06
            2314            2492     160.917E-06     172.057E-06
            2315            2492     160.917E-06     172.057E-06
            2299            2492     160.917E-06     172.057E-06
            2300            2493     157.645E-06     167.980E-06
            2316            2493     157.645E-06     167.980E-06
            2315            2493     157.645E-06     167.980E-06
            2299            2493     157.645E-06     167.980E-06
            2317            2494     155.422E-06     164.438E-06
            2300            2494     155.422E-06     164.438E-06
            2301            2494     155.422E-06     164.438E-06
            2316            2494     155.422E-06     164.438E-06
            2318            2495     154.274E-06     161.471E-06
            2301            2495     154.274E-06     161.471E-06
            2302            2495     154.274E-06     161.471E-06
            2317            2495     154.274E-06     161.471E-06
            2302            2496     154.851E-06     158.085E-06
            2319            2496     154.851E-06     158.085E-06
            2318            2496     154.851E-06     158.085E-06
            2303            2496     154.851E-06     158.085E-06
            2303            2497     160.210E-06     152.122E-06
            2304            2497     160.210E-06     152.122E-06
            2320            2497     160.210E-06     152.122E-06
            2319            2497     160.210E-06     152.122E-06
            2306            2498     168.491E-06     175.314E-06
            2321            2498     168.491E-06     175.314E-06
            2305            2498     168.491E-06     175.314E-06
            2322            2498     168.491E-06     175.314E-06
            2307            2499     187.784E-06     198.252E-06
            2306            2499     187.784E-06     198.252E-06
            2323            2499     187.784E-06     198.252E-06
            2322            2499     187.784E-06     198.252E-06
            2323            2500     207.574E-06     213.759E-06
            2307            2500     207.574E-06     213.759E-06
            2308            2500     207.574E-06     213.759E-06
            2324            2500     207.574E-06     213.759E-06
            2309            2501     205.933E-06     210.176E-06
            2325            2501     205.933E-06     210.176E-06
            2324            2501     205.933E-06     210.176E-06
            2308            2501     205.933E-06     210.176E-06
            2325            2502     198.401E-06     203.149E-06
            2309            2502     198.401E-06     203.149E-06
            2326            2502     198.401E-06     203.149E-06
            2310            2502     198.401E-06     203.149E-06
            2310            2503     191.037E-06     195.308E-06
            2326            2503     191.037E-06     195.308E-06
            2327            2503     191.037E-06     195.308E-06
            2311            2503     191.037E-06     195.308E-06
            2327            2504     183.952E-06     188.434E-06
            2311            2504     183.952E-06     188.434E-06
            2312            2504     183.952E-06     188.434E-06
            2328            2504     183.952E-06     188.434E-06
            2329            2505     178.230E-06     182.584E-06
            2313            2505     178.230E-06     182.584E-06
            2312            2505     178.230E-06     182.584E-06
            2328            2505     178.230E-06     182.584E-06
            2313            2506     173.296E-06     177.564E-06
            2329            2506     173.296E-06     177.564E-06
            2314            2506     173.296E-06     177.564E-06
            2330            2506     173.296E-06     177.564E-06
            2315            2507     169.150E-06     173.494E-06
            2314            2507     169.150E-06     173.494E-06
            2331            2507     169.150E-06     173.494E-06
            2330            2507     169.150E-06     173.494E-06
            2316            2508     165.863E-06     169.974E-06
            2332            2508     165.863E-06     169.974E-06
            2315            2508     165.863E-06     169.974E-06
            2331            2508     165.863E-06     169.974E-06
            2332            2509     163.022E-06     167.533E-06
            2317            2509     163.022E-06     167.533E-06
            2333            2509     163.022E-06     167.533E-06
            2316            2509     163.022E-06     167.533E-06
            2318            2510     161.763E-06     165.836E-06
            2333            2510     161.763E-06     165.836E-06
            2317            2510     161.763E-06     165.836E-06
            2334            2510     161.763E-06     165.836E-06
            2335            2511     165.428E-06     160.297E-06
            2334            2511     165.428E-06     160.297E-06
            2319            2511     165.428E-06     160.297E-06
            2318            2511     165.428E-06     160.297E-06
            2319            2512     169.223E-06     151.764E-06
            2336            2512     169.223E-06     151.764E-06
            2335            2512     169.223E-06     151.764E-06
            2320            2512     169.223E-06     151.764E-06
            2338            2513     114.029E-06     114.576E-06
            2322            2513     114.029E-06     114.576E-06
            2321            2513     114.029E-06     114.576E-06
            2337            2513     114.029E-06     114.576E-06
            2322            2514     166.913E-06     167.892E-06
            2339            2514     166.913E-06     167.892E-06
            2338            2514     166.913E-06     167.892E-06
            2323            2514     166.913E-06     167.892E-06
            2324            2515     201.961E-06     196.598E-06
            2339            2515     201.961E-06     196.598E-06
            2340            2515     201.961E-06     196.598E-06
            2323            2515     201.961E-06     196.598E-06
            2341            2516     206.623E-06     200.622E-06
            2324            2516     206.623E-06     200.622E-06
            2340            2516     206.623E-06     200.622E-06
            2325            2516     206.623E-06     200.622E-06
            2341            2517     202.797E-06     197.046E-06
            2326            2517     202.797E-06     197.046E-06
            2342            2517     202.797E-06     197.046E-06
            2325            2517     202.797E-06     197.046E-06
            2343            2518     197.008E-06     191.799E-06
            2342            2518     197.008E-06     191.799E-06
            2327            2518     197.008E-06     191.799E-06
            2326            2518     197.008E-06     191.799E-06
            2327            2519     191.427E-06     186.629E-06
            2343            2519     191.427E-06     186.629E-06
            2328            2519     191.427E-06     186.629E-06
            2344            2519     191.427E-06     186.629E-06
            2328            2520     186.344E-06     182.044E-06
            2344            2520     186.344E-06     182.044E-06
            2345            2520     186.344E-06     182.044E-06
            2329            2520     186.344E-06     182.044E-06
            2345            2521     181.884E-06     178.200E-06
            2329            2521     181.884E-06     178.200E-06
            2330            2521     181.884E-06     178.200E-06
            2346            2521     181.884E-06     178.200E-06
            2347            2522     177.988E-06     174.872E-06
            2330            2522     177.988E-06     174.872E-06
            2346            2522     177.988E-06     174.872E-06
            2331            2522     177.988E-06     174.872E-06
            2347            2523     174.498E-06     172.363E-06
            2332            2523     174.498E-06     172.363E-06
            2348            2523     174.498E-06     172.363E-06
            2331            2523     174.498E-06     172.363E-06
            2348            2524     171.672E-06     170.399E-06
            2332            2524     171.672E-06     170.399E-06
            2333            2524     171.672E-06     170.399E-06
            2349            2524     171.672E-06     170.399E-06
            2333            2525     169.272E-06     169.302E-06
            2349            2525     169.272E-06     169.302E-06
            2334            2525     169.272E-06     169.302E-06
            2350            2525     169.272E-06     169.302E-06
            2334            2526     168.004E-06     169.141E-06
            2351            2526     168.004E-06     169.141E-06
            2350            2526     168.004E-06     169.141E-06
            2335            2526     168.004E-06     169.141E-06
            2336            2527     172.436E-06     165.493E-06
            2351            2527     172.436E-06     165.493E-06
            2352            2527     172.436E-06     165.493E-06
            2335            2527     172.436E-06     165.493E-06
            2353            2528     88.0132E-06     94.1880E-06
            2337            2528     88.0132E-06     94.1880E-06
            2338            2528     88.0132E-06     94.1880E-06
            2354            2528     88.0132E-06     94.1880E-06
            2339            2529     153.937E-06     134.089E-06
            2355            2529     153.937E-06     134.089E-06
            2338            2529     153.937E-06     134.089E-06
            2354            2529     153.937E-06     134.089E-06
            2340            2530     186.902E-06     168.470E-06
            2339            2530     186.902E-06     168.470E-06
            2356            2530     186.902E-06     168.470E-06
            2355            2530     186.902E-06     168.470E-06
            2340            2531     200.160E-06     183.163E-06
            2357            2531     200.160E-06     183.163E-06
            2341            2531     200.160E-06     183.163E-06
            2356            2531     200.160E-06     183.163E-06
            2358            2532     203.216E-06     186.778E-06
            2357            2532     203.216E-06     186.778E-06
            2342            2532     203.216E-06     186.778E-06
            2341            2532     203.216E-06     186.778E-06
            2342            2533     201.473E-06     186.332E-06
            2358            2533     201.473E-06     186.332E-06
            2343            2533     201.473E-06     186.332E-06
            2359            2533     201.473E-06     186.332E-06
            2343            2534     198.428E-06     184.120E-06
            2360            2534     198.428E-06     184.120E-06
            2344            2534     198.428E-06     184.120E-06
            2359            2534     198.428E-06     184.120E-06
            2360            2535     194.708E-06     181.559E-06
            2345            2535     194.708E-06     181.559E-06
            2361            2535     194.708E-06     181.559E-06
            2344            2535     194.708E-06     181.559E-06
            2346            2536     190.964E-06     179.029E-06
            2362            2536     190.964E-06     179.029E-06
            2345            2536     190.964E-06     179.029E-06
            2361            2536     190.964E-06     179.029E-06
            2346            2537     187.382E-06     176.766E-06
            2363            2537     187.382E-06     176.766E-06
            2362            2537     187.382E-06     176.766E-06
            2347            2537     187.382E-06     176.766E-06
            2363            2538     183.920E-06     174.998E-06
            2348            2538     183.920E-06     174.998E-06
            2347            2538     183.920E-06     174.998E-06
            2364            2538     183.920E-06     174.998E-06
            2364            2539     180.893E-06     173.619E-06
            2348            2539     180.893E-06     173.619E-06
            2365            2539     180.893E-06     173.619E-06
            2349            2539     180.893E-06     173.619E-06
            2366            2540     177.536E-06     172.870E-06
            2349            2540     177.536E-06     172.870E-06
            2365            2540     177.536E-06     172.870E-06
            2350            2540     177.536E-06     172.870E-06
            2367            2541     172.747E-06     175.591E-06
            2350            2541     172.747E-06     175.591E-06
            2366            2541     172.747E-06     175.591E-06
            2351            2541     172.747E-06     175.591E-06
            2367            2542     168.836E-06     180.770E-06
            2368            2542     168.836E-06     180.770E-06
            2352            2542     168.836E-06     180.770E-06
            2351            2542     168.836E-06     180.770E-06
            2545            2693     144.222E-06     155.929E-06
            2562            2693     144.222E-06     155.929E-06
            2546            2693     144.222E-06     155.929E-06
            2561            2693     144.222E-06     155.929E-06
            2546            2694     144.772E-06     156.160E-06
            2562            2694     144.772E-06     156.160E-06
            2547            2694     144.772E-06     156.160E-06
            2563            2694     144.772E-06     156.160E-06
            2548            2695     146.848E-06     157.333E-06
            2547            2695     146.848E-06     157.333E-06
            2564            2695     146.848E-06     157.333E-06
            2563            2695     146.848E-06     157.333E-06
            2565            2696     148.150E-06     161.453E-06
            2549            2696     148.150E-06     161.453E-06
            2564            2696     148.150E-06     161.453E-06
            2548            2696     148.150E-06     161.453E-06
            2566            2697     149.963E-06     165.800E-06
            2565            2697     149.963E-06     165.800E-06
            2550            2697     149.963E-06     165.800E-06
            2549            2697     149.963E-06     165.800E-06
            2566            2698     152.875E-06     170.529E-06
            2551            2698     152.875E-06     170.529E-06
            2550            2698     152.875E-06     170.529E-06
            2567            2698     152.875E-06     170.529E-06
            2567            2699     156.525E-06     175.789E-06
            2568            2699     156.525E-06     175.789E-06
            2551            2699     156.525E-06     175.789E-06
            2552            2699     156.525E-06     175.789E-06
            2568            2700     161.104E-06     181.516E-06
            2569            2700     161.104E-06     181.516E-06
            2552            2700     161.104E-06     181.516E-06
            2553            2700     161.104E-06     181.516E-06
            2569            2701     166.177E-06     187.508E-06
            2570            2701     166.177E-06     187.508E-06
            2553            2701     166.177E-06     187.508E-06
            2554            2701     166.177E-06     187.508E-06
            2571            2702     171.804E-06     193.846E-06
            2554            2702     171.804E-06     193.846E-06
            2555            2702     171.804E-06     193.846E-06
            2570            2702     171.804E-06     193.846E-06
            2571            2703     177.282E-06     199.929E-06
            2572            2703     177.282E-06     199.929E-06
            2556            2703     177.282E-06     199.929E-06
            2555            2703     177.282E-06     199.929E-06
            2557            2704     182.990E-06     206.636E-06
            2573            2704     182.990E-06     206.636E-06
            2572            2704     182.990E-06     206.636E-06
            2556            2704     182.990E-06     206.636E-06
            2573            2705     189.810E-06     214.300E-06
            2574            2705     189.810E-06     214.300E-06
            2558            2705     189.810E-06     214.300E-06
            2557            2705     189.810E-06     214.300E-06
            2575            2706     212.671E-06     237.260E-06
            2574            2706     212.671E-06     237.260E-06
            2558            2706     212.671E-06     237.260E-06
            2559            2706     212.671E-06     237.260E-06
            2559            2707     280.423E-06     301.297E-06
            2560            2707     280.423E-06     301.297E-06
            2575            2707     280.423E-06     301.297E-06
            2576            2707     280.423E-06     301.297E-06
            2577            2708     160.133E-06     152.069E-06
            2562            2708     160.133E-06     152.069E-06
            2578            2708     160.133E-06     152.069E-06
            2561            2708     160.133E-06     152.069E-06
            2563            2709     154.745E-06     158.027E-06
            2579            2709     154.745E-06     158.027E-06
            2562            2709     154.745E-06     158.027E-06
            2578            2709     154.745E-06     158.027E-06
            2563            2710     154.149E-06     161.366E-06
            2580            2710     154.149E-06     161.366E-06
            2579            2710     154.149E-06     161.366E-06
            2564            2710     154.149E-06     161.366E-06
            2581            2711     155.269E-06     164.282E-06
            2565            2711     155.269E-06     164.282E-06
            2564            2711     155.269E-06     164.282E-06
            2580            2711     155.269E-06     164.282E-06
            2581            2712     157.452E-06     167.777E-06
            2565            2712     157.452E-06     167.777E-06
            2582            2712     157.452E-06     167.777E-06
            2566            2712     157.452E-06     167.777E-06
            2566            2713     160.672E-06     171.802E-06
            2567            2713     160.672E-06     171.802E-06
            2583            2713     160.672E-06     171.802E-06
            2582            2713     160.672E-06     171.802E-06
            2583            2714     164.659E-06     176.654E-06
            2568            2714     164.659E-06     176.654E-06
            2567            2714     164.659E-06     176.654E-06
            2584            2714     164.659E-06     176.654E-06
            2569            2715     169.437E-06     182.067E-06
            2568            2715     169.437E-06     182.067E-06
            2585            2715     169.437E-06     182.067E-06
            2584            2715     169.437E-06     182.067E-06
            2569            2716     175.244E-06     188.270E-06
            2570            2716     175.244E-06     188.270E-06
            2586            2716     175.244E-06     188.270E-06
            2585            2716     175.244E-06     188.270E-06
            2587            2717     181.555E-06     195.153E-06
            2570            2717     181.555E-06     195.153E-06
            2571            2717     181.555E-06     195.153E-06
            2586            2717     181.555E-06     195.153E-06
            2571            2718     189.112E-06     202.717E-06
            2572            2718     189.112E-06     202.717E-06
            2587            2718     189.112E-06     202.717E-06
            2588            2718     189.112E-06     202.717E-06
            2573            2719     195.841E-06     210.514E-06
            2589            2719     195.841E-06     210.514E-06
            2588            2719     195.841E-06     210.514E-06
            2572            2719     195.841E-06     210.514E-06
            2589            2720     201.605E-06     216.703E-06
            2573            2720     201.605E-06     216.703E-06
            2574            2720     201.605E-06     216.703E-06
            2590            2720     201.605E-06     216.703E-06
            2575            2721     213.201E-06     225.068E-06
            2590            2721     213.201E-06     225.068E-06
            2574            2721     213.201E-06     225.068E-06
            2591            2721     213.201E-06     225.068E-06
            2575            2722     235.075E-06     239.089E-06
            2591            2722     235.075E-06     239.089E-06
            2592            2722     235.075E-06     239.089E-06
            2576            2722     235.075E-06     239.089E-06
            2577            2723     169.107E-06     151.604E-06
            2594            2723     169.107E-06     151.604E-06
            2593            2723     169.107E-06     151.604E-06
            2578            2723     169.107E-06     151.604E-06
            2579            2724     165.238E-06     160.188E-06
            2595            2724     165.238E-06     160.188E-06
            2594            2724     165.238E-06     160.188E-06
            2578            2724     165.238E-06     160.188E-06
            2595            2725     161.548E-06     165.673E-06
            2579            2725     161.548E-06     165.673E-06
            2580            2725     161.548E-06     165.673E-06
            2596            2725     161.548E-06     165.673E-06
            2597            2726     162.804E-06     167.304E-06
            2596            2726     162.804E-06     167.304E-06
            2581            2726     162.804E-06     167.304E-06
            2580            2726     162.804E-06     167.304E-06
            2582            2727     165.610E-06     169.709E-06
            2581            2727     165.610E-06     169.709E-06
            2597            2727     165.610E-06     169.709E-06
            2598            2727     165.610E-06     169.709E-06
            2583            2728     168.850E-06     173.183E-06
            2598            2728     168.850E-06     173.183E-06
            2582            2728     168.850E-06     173.183E-06
            2599            2728     168.850E-06     173.183E-06
            2600            2729     172.939E-06     177.196E-06
            2584            2729     172.939E-06     177.196E-06
            2599            2729     172.939E-06     177.196E-06
            2583            2729     172.939E-06     177.196E-06
            2585            2730     177.805E-06     182.147E-06
            2601            2730     177.805E-06     182.147E-06
            2600            2730     177.805E-06     182.147E-06
            2584            2730     177.805E-06     182.147E-06
            2585            2731     183.449E-06     187.921E-06
            2586            2731     183.449E-06     187.921E-06
            2601            2731     183.449E-06     187.921E-06
            2602            2731     183.449E-06     187.921E-06
            2587            2732     190.460E-06     194.715E-06
            2586            2732     190.460E-06     194.715E-06
            2602            2732     190.460E-06     194.715E-06
            2603            2732     190.460E-06     194.715E-06
            2603            2733     197.773E-06     202.505E-06
            2587            2733     197.773E-06     202.505E-06
            2604            2733     197.773E-06     202.505E-06
            2588            2733     197.773E-06     202.505E-06
            2605            2734     205.318E-06     209.528E-06
            2588            2734     205.318E-06     209.528E-06
            2604            2734     205.318E-06     209.528E-06
            2589            2734     205.318E-06     209.528E-06
            2590            2735     207.126E-06     213.238E-06
            2606            2735     207.126E-06     213.238E-06
            2589            2735     207.126E-06     213.238E-06
            2605            2735     207.126E-06     213.238E-06
            2607            2736     187.361E-06     197.818E-06
            2591            2736     187.361E-06     197.818E-06
            2590            2736     187.361E-06     197.818E-06
            2606            2736     187.361E-06     197.818E-06
            2591            2737     167.589E-06     174.439E-06
            2592            2737     167.589E-06     174.439E-06
            2607            2737     167.589E-06     174.439E-06
            2608            2737     167.589E-06     174.439E-06
            2594            2738     172.218E-06     165.277E-06
            2593            2738     172.218E-06     165.277E-06
            2609            2738     172.218E-06     165.277E-06
            2610            2738     172.218E-06     165.277E-06
            2611            2739     167.775E-06     168.909E-06
            2594            2739     167.775E-06     168.909E-06
            2610            2739     167.775E-06     168.909E-06
            2595            2739     167.775E-06     168.909E-06
            2611            2740     169.030E-06     169.044E-06
            2596            2740     169.030E-06     169.044E-06
            2595            2740     169.030E-06     169.044E-06
            2612            2740     169.030E-06     169.044E-06
            2613            2741     171.403E-06     170.118E-06
            2596            2741     171.403E-06     170.118E-06
            2612            2741     171.403E-06     170.118E-06
            2597            2741     171.403E-06     170.118E-06
            2598            2742     174.199E-06     172.050E-06
            2614            2742     174.199E-06     172.050E-06
            2613            2742     174.199E-06     172.050E-06
            2597            2742     174.199E-06     172.050E-06
            2599            2743     177.652E-06     174.522E-06
            2614            2743     177.652E-06     174.522E-06
            2598            2743     177.652E-06     174.522E-06
            2615            2743     177.652E-06     174.522E-06
            2615            2744     181.504E-06     177.805E-06
            2600            2744     181.504E-06     177.805E-06
            2616            2744     181.504E-06     177.805E-06
            2599            2744     181.504E-06     177.805E-06
            2617            2745     185.912E-06     181.595E-06
            2600            2745     185.912E-06     181.595E-06
            2616            2745     185.912E-06     181.595E-06
            2601            2745     185.912E-06     181.595E-06
            2602            2746     190.938E-06     186.120E-06
            2618            2746     190.938E-06     186.120E-06
            2601            2746     190.938E-06     186.120E-06
            2617            2746     190.938E-06     186.120E-06
            2602            2747     196.467E-06     191.239E-06
            2618            2747     196.467E-06     191.239E-06
            2603            2747     196.467E-06     191.239E-06
            2619            2747     196.467E-06     191.239E-06
            2620            2748     202.238E-06     196.465E-06
            2603            2748     202.238E-06     196.465E-06
            2619            2748     202.238E-06     196.465E-06
            2604            2748     202.238E-06     196.465E-06
            2621            2749     206.126E-06     200.093E-06
            2605            2749     206.126E-06     200.093E-06
            2620            2749     206.126E-06     200.093E-06
            2604            2749     206.126E-06     200.093E-06
            2622            2750     201.703E-06     196.261E-06
            2621            2750     201.703E-06     196.261E-06
            2606            2750     201.703E-06     196.261E-06
            2605            2750     201.703E-06     196.261E-06
            2623            2751     166.935E-06     167.823E-06
            2607            2751     166.935E-06     167.823E-06
            2622            2751     166.935E-06     167.823E-06
            2606            2751     166.935E-06     167.823E-06
            2607            2752     113.563E-06     114.121E-06
            2608            2752     113.563E-06     114.121E-06
            2624            2752     113.563E-06     114.121E-06
            2623            2752     113.563E-06     114.121E-06
            2625            2753     168.557E-06     180.470E-06
            2626            2753     168.557E-06     180.470E-06
            2610            2753     168.557E-06     180.470E-06
            2609            2753     168.557E-06     180.470E-06
            2610            2754     172.485E-06     175.259E-06
            2626            2754     172.485E-06     175.259E-06
            2627            2754     172.485E-06     175.259E-06
            2611            2754     172.485E-06     175.259E-06
            2628            2755     177.257E-06     172.538E-06
            2611            2755     177.257E-06     172.538E-06
            2612            2755     177.257E-06     172.538E-06
            2627            2755     177.257E-06     172.538E-06
            2613            2756     180.581E-06     173.287E-06
            2628            2756     180.581E-06     173.287E-06
            2629            2756     180.581E-06     173.287E-06
            2612            2756     180.581E-06     173.287E-06
            2613            2757     183.582E-06     174.641E-06
            2614            2757     183.582E-06     174.641E-06
            2629            2757     183.582E-06     174.641E-06
            2630            2757     183.582E-06     174.641E-06
            2615            2758     187.019E-06     176.382E-06
            2630            2758     187.019E-06     176.382E-06
            2614            2758     187.019E-06     176.382E-06
            2631            2758     187.019E-06     176.382E-06
            2616            2759     190.575E-06     178.616E-06
            2615            2759     190.575E-06     178.616E-06
            2631            2759     190.575E-06     178.616E-06
            2632            2759     190.575E-06     178.616E-06
            2633            2760     194.294E-06     181.119E-06
            2632            2760     194.294E-06     181.119E-06
            2616            2760     194.294E-06     181.119E-06
            2617            2760     194.294E-06     181.119E-06
            2618            2761     197.997E-06     183.661E-06
            2634            2761     197.997E-06     183.661E-06
            2617            2761     197.997E-06     183.661E-06
            2633            2761     197.997E-06     183.661E-06
            2619            2762     201.045E-06     185.877E-06
            2634            2762     201.045E-06     185.877E-06
            2618            2762     201.045E-06     185.877E-06
            2635            2762     201.045E-06     185.877E-06
            2635            2763     202.831E-06     186.367E-06
            2619            2763     202.831E-06     186.367E-06
            2620            2763     202.831E-06     186.367E-06
            2636            2763     202.831E-06     186.367E-06
            2637            2764     199.895E-06     182.870E-06
            2620            2764     199.895E-06     182.870E-06
            2636            2764     199.895E-06     182.870E-06
            2621            2764     199.895E-06     182.870E-06
            2638            2765     186.810E-06     168.364E-06
            2621            2765     186.810E-06     168.364E-06
            2637            2765     186.810E-06     168.364E-06
            2622            2765     186.810E-06     168.364E-06
            2623            2766     154.161E-06     134.267E-06
            2639            2766     154.161E-06     134.267E-06
            2638            2766     154.161E-06     134.267E-06
            2622            2766     154.161E-06     134.267E-06
            2640            2767     87.9607E-06     94.1629E-06
            2639            2767     87.9607E-06     94.1629E-06
            2623            2767     87.9607E-06     94.1629E-06
            2624            2767     87.9607E-06     94.1629E-06
            3028            3027     149.583E-03     181.636E-03
            3027            3027     149.583E-03     181.636E-03
            3012            3027     149.583E-03     181.636E-03
            3011            3027     149.583E-03     181.636E-03
            3029            3028     165.951E-03     216.847E-03
            3028            3028     165.951E-03     216.847E-03
            3012            3028     165.951E-03     216.847E-03
            3013            3028     165.951E-03     216.847E-03
            3014            3029     203.875E-03     263.425E-03
            3029            3029     203.875E-03     263.425E-03
            3013            3029     203.875E-03     263.425E-03
            3030            3029     203.875E-03     263.425E-03
            3031            3030     251.966E-03     315.874E-03
            3014            3030     251.966E-03     315.874E-03
            3030            3030     251.966E-03     315.874E-03
            3015            3030     251.966E-03     315.874E-03
            3016            3031     304.090E-03     369.949E-03
            3031            3031     304.090E-03     369.949E-03
            3032            3031     304.090E-03     369.949E-03
            3015            3031     304.090E-03     369.949E-03
            3032            3032     358.129E-03     425.519E-03
            3033            3032     358.129E-03     425.519E-03
            3017            3032     358.129E-03     425.519E-03
            3016            3032     358.129E-03     425.519E-03
            3034            3033     413.699E-03     481.706E-03
            3018            3033     413.699E-03     481.706E-03
            3017            3033     413.699E-03     481.706E-03
            3033            3033     413.699E-03     481.706E-03
            3018            3034     469.915E-03     538.783E-03
            3035            3034     469.915E-03     538.783E-03
            3019            3034     469.915E-03     538.783E-03
            3034            3034     469.915E-03     538.783E-03
            3036            3035     526.966E-03     595.874E-03
            3019            3035     526.966E-03     595.874E-03
            3020            3035     526.966E-03     595.874E-03
            3035            3035     526.966E-03     595.874E-03
            3020            3036     584.246E-03     653.843E-03
            3036            3036     584.246E-03     653.843E-03
            3021            3036     584.246E-03     653.843E-03
            3037            3036     584.246E-03     653.843E-03
            3038            3037     642.047E-03     711.351E-03
            3037            3037     642.047E-03     711.351E-03
            3022            3037     642.047E-03     711.351E-03
            3021            3037     642.047E-03     711.351E-03
            3039            3038     700.633E-03     770.176E-03
            3023            3038     700.633E-03     770.176E-03
            3022            3038     700.633E-03     770.176E-03
            3038            3038     700.633E-03     770.176E-03
            3023            3039     757.080E-03     827.496E-03
            3040            3039     757.080E-03     827.496E-03
            3039            3039     757.080E-03     827.496E-03
            3024            3039     757.080E-03     827.496E-03
            3025            3040     818.813E-03     888.544E-03
            3040            3040     818.813E-03     888.544E-03
            3024            3040     818.813E-03     888.544E-03
            3041            3040     818.813E-03     888.544E-03
            3041            3041     930.089E-03     991.800E-03
            3026            3041     930.089E-03     991.800E-03
            3025            3041     930.089E-03     991.800E-03
            3042            3041     930.089E-03     991.800E-03
            3027            3042     198.992E-03     191.501E-03
            3043            3042     198.992E-03     191.501E-03
            3044            3042     198.992E-03     191.501E-03
            3028            3042     198.992E-03     191.501E-03
            3045            3043     227.660E-03     207.843E-03
            3044            3043     227.660E-03     207.843E-03
            3029            3043     227.660E-03     207.843E-03
            3028            3043     227.660E-03     207.843E-03
            3029            3044     269.445E-03     242.939E-03
            3030            3044     269.445E-03     242.939E-03
            3045            3044     269.445E-03     242.939E-03
            3046            3044     269.445E-03     242.939E-03
            3030            3045     317.263E-03     288.121E-03
            3031            3045     317.263E-03     288.121E-03
            3046            3045     317.263E-03     288.121E-03
            3047            3045     317.263E-03     288.121E-03
            3048            3046     368.558E-03     337.135E-03
            3047            3046     368.558E-03     337.135E-03
            3031            3046     368.558E-03     337.135E-03
            3032            3046     368.558E-03     337.135E-03
            3049            3047     421.998E-03     388.952E-03
            3048            3047     421.998E-03     388.952E-03
            3032            3047     421.998E-03     388.952E-03
            3033            3047     421.998E-03     388.952E-03
            3033            3048     476.566E-03     442.688E-03
            3034            3048     476.566E-03     442.688E-03
            3049            3048     476.566E-03     442.688E-03
            3050            3048     476.566E-03     442.688E-03
            3034            3049     532.240E-03     497.429E-03
            3051            3049     532.240E-03     497.429E-03
            3050            3049     532.240E-03     497.429E-03
            3035            3049     532.240E-03     497.429E-03
            3035            3050     588.217E-03     553.181E-03
            3036            3050     588.217E-03     553.181E-03
            3052            3050     588.217E-03     553.181E-03
            3051            3050     588.217E-03     553.181E-03
            3037            3051     644.956E-03     609.135E-03
            3036            3051     644.956E-03     609.135E-03
            3052            3051     644.956E-03     609.135E-03
            3053            3051     644.956E-03     609.135E-03
            3054            3052     701.215E-03     665.519E-03
            3053            3052     701.215E-03     665.519E-03
            3037            3052     701.215E-03     665.519E-03
            3038            3052     701.215E-03     665.519E-03
            3038            3053     758.069E-03     721.328E-03
            3054            3053     758.069E-03     721.328E-03
            3039            3053     758.069E-03     721.328E-03
            3055            3053     758.069E-03     721.328E-03
            3040            3054     815.005E-03     779.114E-03
            3056            3054     815.005E-03     779.114E-03
            3039            3054     815.005E-03     779.114E-03
            3055            3054     815.005E-03     779.114E-03
            3040            3055     875.776E-03     839.550E-03
            3056            3055     875.776E-03     839.550E-03
            3041            3055     875.776E-03     839.550E-03
            3057            3055     875.776E-03     839.550E-03
            3058            3056     879.052E-03     833.666E-03
            3042            3056     879.052E-03     833.666E-03
            3041            3056     879.052E-03     833.666E-03
            3057            3056     879.052E-03     833.666E-03
            3044            3057     165.465E-03     175.211E-03
            3060            3057     165.465E-03     175.211E-03
            3059            3057     165.465E-03     175.211E-03
            3043            3057     165.465E-03     175.211E-03
            3045            3058     193.615E-03     186.264E-03
            3061            3058     193.615E-03     186.264E-03
            3044            3058     193.615E-03     186.264E-03
            3060            3058     193.615E-03     186.264E-03
            3045            3059     220.598E-03     208.202E-03
            3061            3059     220.598E-03     208.202E-03
            3046            3059     220.598E-03     208.202E-03
            3062            3059     220.598E-03     208.202E-03
            3046            3060     251.570E-03     238.941E-03
            3063            3060     251.570E-03     238.941E-03
            3047            3060     251.570E-03     238.941E-03
            3062            3060     251.570E-03     238.941E-03
            3063            3061     285.903E-03     273.365E-03
            3047            3061     285.903E-03     273.365E-03
            3064            3061     285.903E-03     273.365E-03
            3048            3061     285.903E-03     273.365E-03
            3049            3062     322.824E-03     310.405E-03
            3064            3062     322.824E-03     310.405E-03
            3065            3062     322.824E-03     310.405E-03
            3048            3062     322.824E-03     310.405E-03
            3049            3063     361.123E-03     348.932E-03
            3065            3063     361.123E-03     348.932E-03
            3066            3063     361.123E-03     348.932E-03
            3050            3063     361.123E-03     348.932E-03
            3050            3064     400.617E-03     388.253E-03
            3066            3064     400.617E-03     388.253E-03
            3051            3064     400.617E-03     388.253E-03
            3067            3064     400.617E-03     388.253E-03
            3068            3065     440.558E-03     428.384E-03
            3052            3065     440.558E-03     428.384E-03
            3051            3065     440.558E-03     428.384E-03
            3067            3065     440.558E-03     428.384E-03
            3069            3066     481.000E-03     468.521E-03
            3068            3066     481.000E-03     468.521E-03
            3053            3066     481.000E-03     468.521E-03
            3052            3066     481.000E-03     468.521E-03
            3070            3067     522.526E-03     510.122E-03
            3053            3067     522.526E-03     510.122E-03
            3054            3067     522.526E-03     510.122E-03
            3069            3067     522.526E-03     510.122E-03
            3054            3068     565.865E-03     553.313E-03
            3055            3068     565.865E-03     553.313E-03
            3071            3068     565.865E-03     553.313E-03
            3070            3068     565.865E-03     553.313E-03
            3072            3069     621.186E-03     607.438E-03
            3071            3069     621.186E-03     607.438E-03
            3055            3069     621.186E-03     607.438E-03
            3056            3069     621.186E-03     607.438E-03
            3057            3070     685.598E-03     677.206E-03
            3072            3070     685.598E-03     677.206E-03
            3056            3070     685.598E-03     677.206E-03
            3073            3070     685.598E-03     677.206E-03
            3058            3071     760.977E-03     777.328E-03
            3074            3071     760.977E-03     777.328E-03
            3073            3071     760.977E-03     777.328E-03
            3057            3071     760.977E-03     777.328E-03
            3075            3072     135.840E-03     159.157E-03
            3076            3072     135.840E-03     159.157E-03
            3060            3072     135.840E-03     159.157E-03
            3059            3072     135.840E-03     159.157E-03
            3077            3073     138.644E-03     166.706E-03
            3061            3073     138.644E-03     166.706E-03
            3076            3073     138.644E-03     166.706E-03
            3060            3073     138.644E-03     166.706E-03
            3061            3074     149.242E-03     182.330E-03
            3077            3074     149.242E-03     182.330E-03
            3078            3074     149.242E-03     182.330E-03
            3062            3074     149.242E-03     182.330E-03
            3062            3075     163.333E-03     202.564E-03
            3079            3075     163.333E-03     202.564E-03
            3078            3075     163.333E-03     202.564E-03
            3063            3075     163.333E-03     202.564E-03
            3064            3076     181.031E-03     225.194E-03
            3079            3076     181.031E-03     225.194E-03
            3080            3076     181.031E-03     225.194E-03
            3063            3076     181.031E-03     225.194E-03
            3080            3077     201.639E-03     249.164E-03
            3081            3077     201.639E-03     249.164E-03
            3065            3077     201.639E-03     249.164E-03
            3064            3077     201.639E-03     249.164E-03
            3065            3078     224.195E-03     273.884E-03
            3081            3078     224.195E-03     273.884E-03
            3082            3078     224.195E-03     273.884E-03
            3066            3078     224.195E-03     273.884E-03
            3082            3079     247.965E-03     299.271E-03
            3067            3079     247.965E-03     299.271E-03
            3066            3079     247.965E-03     299.271E-03
            3083            3079     247.965E-03     299.271E-03
            3067            3080     272.357E-03     324.715E-03
            3068            3080     272.357E-03     324.715E-03
            3083            3080     272.357E-03     324.715E-03
            3084            3080     272.357E-03     324.715E-03
            3068            3081     297.795E-03     351.029E-03
            3084            3081     297.795E-03     351.029E-03
            3085            3081     297.795E-03     351.029E-03
            3069            3081     297.795E-03     351.029E-03
            3085            3082     324.281E-03     378.347E-03
            3086            3082     324.281E-03     378.347E-03
            3069            3082     324.281E-03     378.347E-03
            3070            3082     324.281E-03     378.347E-03
            3071            3083     357.872E-03     412.237E-03
            3086            3083     357.872E-03     412.237E-03
            3070            3083     357.872E-03     412.237E-03
            3087            3083     357.872E-03     412.237E-03
            3088            3084     404.324E-03     459.647E-03
            3071            3084     404.324E-03     459.647E-03
            3072            3084     404.324E-03     459.647E-03
            3087            3084     404.324E-03     459.647E-03
            3073            3085     495.226E-03     551.512E-03
            3072            3085     495.226E-03     551.512E-03
            3088            3085     495.226E-03     551.512E-03
            3089            3085     495.226E-03     551.512E-03
            3073            3086     698.328E-03     745.899E-03
            3090            3086     698.328E-03     745.899E-03
            3089            3086     698.328E-03     745.899E-03
            3074            3086     698.328E-03     745.899E-03
            3075            3087     168.550E-03     160.551E-03
            3076            3087     168.550E-03     160.551E-03
            3092            3087     168.550E-03     160.551E-03
            3091            3087     168.550E-03     160.551E-03
            3077            3088     162.857E-03     173.436E-03
            3093            3088     162.857E-03     173.436E-03
            3092            3088     162.857E-03     173.436E-03
            3076            3088     162.857E-03     173.436E-03
            3077            3089     169.448E-03     188.296E-03
            3094            3089     169.448E-03     188.296E-03
            3078            3089     169.448E-03     188.296E-03
            3093            3089     169.448E-03     188.296E-03
            3094            3090     183.195E-03     206.963E-03
            3095            3090     183.195E-03     206.963E-03
            3078            3090     183.195E-03     206.963E-03
            3079            3090     183.195E-03     206.963E-03
            3095            3091     200.543E-03     228.177E-03
            3079            3091     200.543E-03     228.177E-03
            3096            3091     200.543E-03     228.177E-03
            3080            3091     200.543E-03     228.177E-03
            3081            3092     221.140E-03     250.971E-03
            3096            3092     221.140E-03     250.971E-03
            3080            3092     221.140E-03     250.971E-03
            3097            3092     221.140E-03     250.971E-03
            3097            3093     243.778E-03     275.291E-03
            3098            3093     243.778E-03     275.291E-03
            3082            3093     243.778E-03     275.291E-03
            3081            3093     243.778E-03     275.291E-03
            3099            3094     267.779E-03     300.491E-03
            3098            3094     267.779E-03     300.491E-03
            3083            3094     267.779E-03     300.491E-03
            3082            3094     267.779E-03     300.491E-03
            3099            3095     292.978E-03     326.659E-03
            3100            3095     292.978E-03     326.659E-03
            3083            3095     292.978E-03     326.659E-03
            3084            3095     292.978E-03     326.659E-03
            3100            3096     318.830E-03     353.538E-03
            3084            3096     318.830E-03     353.538E-03
            3101            3096     318.830E-03     353.538E-03
            3085            3096     318.830E-03     353.538E-03
            3085            3097     346.453E-03     382.100E-03
            3086            3097     346.453E-03     382.100E-03
            3102            3097     346.453E-03     382.100E-03
            3101            3097     346.453E-03     382.100E-03
            3103            3098     376.368E-03     413.653E-03
            3086            3098     376.368E-03     413.653E-03
            3102            3098     376.368E-03     413.653E-03
            3087            3098     376.368E-03     413.653E-03
            3087            3099     418.126E-03     454.088E-03
            3103            3099     418.126E-03     454.088E-03
            3104            3099     418.126E-03     454.088E-03
            3088            3099     418.126E-03     454.088E-03
            3105            3100     503.352E-03     528.055E-03
            3088            3100     503.352E-03     528.055E-03
            3089            3100     503.352E-03     528.055E-03
            3104            3100     503.352E-03     528.055E-03
            3106            3101     640.725E-03     644.278E-03
            3105            3101     640.725E-03     644.278E-03
            3090            3101     640.725E-03     644.278E-03
            3089            3101     640.725E-03     644.278E-03
            3107            3102     188.187E-03     170.932E-03
            3091            3102     188.187E-03     170.932E-03
            3092            3102     188.187E-03     170.932E-03
            3108            3102     188.187E-03     170.932E-03
            3108            3103     186.026E-03     180.281E-03
            3109            3103     186.026E-03     180.281E-03
            3092            3103     186.026E-03     180.281E-03
            3093            3103     186.026E-03     180.281E-03
            3110            3104     189.833E-03     196.107E-03
            3109            3104     189.833E-03     196.107E-03
            3093            3104     189.833E-03     196.107E-03
            3094            3104     189.833E-03     196.107E-03
            3111            3105     201.718E-03     212.858E-03
            3110            3105     201.718E-03     212.858E-03
            3094            3105     201.718E-03     212.858E-03
            3095            3105     201.718E-03     212.858E-03
            3112            3106     219.273E-03     231.686E-03
            3111            3106     219.273E-03     231.686E-03
            3095            3106     219.273E-03     231.686E-03
            3096            3106     219.273E-03     231.686E-03
            3112            3107     239.581E-03     253.146E-03
            3096            3107     239.581E-03     253.146E-03
            3113            3107     239.581E-03     253.146E-03
            3097            3107     239.581E-03     253.146E-03
            3097            3108     262.017E-03     276.397E-03
            3113            3108     262.017E-03     276.397E-03
            3098            3108     262.017E-03     276.397E-03
            3114            3108     262.017E-03     276.397E-03
            3114            3109     286.258E-03     301.305E-03
            3099            3109     286.258E-03     301.305E-03
            3115            3109     286.258E-03     301.305E-03
            3098            3109     286.258E-03     301.305E-03
            3099            3110     311.958E-03     327.717E-03
            3115            3110     311.958E-03     327.717E-03
            3116            3110     311.958E-03     327.717E-03
            3100            3110     311.958E-03     327.717E-03
            3101            3111     338.890E-03     355.329E-03
            3116            3111     338.890E-03     355.329E-03
            3100            3111     338.890E-03     355.329E-03
            3117            3111     338.890E-03     355.329E-03
            3117            3112     366.848E-03     384.400E-03
            3102            3112     366.848E-03     384.400E-03
            3118            3112     366.848E-03     384.400E-03
            3101            3112     366.848E-03     384.400E-03
            3102            3113     393.529E-03     412.806E-03
            3118            3113     393.529E-03     412.806E-03
            3119            3113     393.529E-03     412.806E-03
            3103            3113     393.529E-03     412.806E-03
            3103            3114     422.871E-03     442.030E-03
            3104            3114     422.871E-03     442.030E-03
            3120            3114     422.871E-03     442.030E-03
            3119            3114     422.871E-03     442.030E-03
            3121            3115     460.700E-03     474.775E-03
            3104            3115     460.700E-03     474.775E-03
            3105            3115     460.700E-03     474.775E-03
            3120            3115     460.700E-03     474.775E-03
            3106            3116     530.255E-03     543.092E-03
            3122            3116     530.255E-03     543.092E-03
            3121            3116     530.255E-03     543.092E-03
            3105            3116     530.255E-03     543.092E-03
            3124            3117     204.094E-03     186.087E-03
            3107            3117     204.094E-03     186.087E-03
            3123            3117     204.094E-03     186.087E-03
            3108            3117     204.094E-03     186.087E-03
            3124            3118     202.139E-03     195.024E-03
            3108            3118     202.139E-03     195.024E-03
            3109            3118     202.139E-03     195.024E-03
            3125            3118     202.139E-03     195.024E-03
            3110            3119     207.194E-03     206.374E-03
            3125            3119     207.194E-03     206.374E-03
            3109            3119     207.194E-03     206.374E-03
            3126            3119     207.194E-03     206.374E-03
            3110            3120     220.093E-03     219.464E-03
            3127            3120     220.093E-03     219.464E-03
            3111            3120     220.093E-03     219.464E-03
            3126            3120     220.093E-03     219.464E-03
            3128            3121     237.303E-03     235.989E-03
            3127            3121     237.303E-03     235.989E-03
            3111            3121     237.303E-03     235.989E-03
            3112            3121     237.303E-03     235.989E-03
            3112            3122     256.917E-03     255.277E-03
            3128            3122     256.917E-03     255.277E-03
            3113            3122     256.917E-03     255.277E-03
            3129            3122     256.917E-03     255.277E-03
            3114            3123     278.608E-03     276.777E-03
            3129            3123     278.608E-03     276.777E-03
            3130            3123     278.608E-03     276.777E-03
            3113            3123     278.608E-03     276.777E-03
            3114            3124     302.126E-03     300.251E-03
            3130            3124     302.126E-03     300.251E-03
            3115            3124     302.126E-03     300.251E-03
            3131            3124     302.126E-03     300.251E-03
            3115            3125     327.195E-03     325.326E-03
            3132            3125     327.195E-03     325.326E-03
            3116            3125     327.195E-03     325.326E-03
            3131            3125     327.195E-03     325.326E-03
            3133            3126     353.844E-03     352.089E-03
            3116            3126     353.844E-03     352.089E-03
            3117            3126     353.844E-03     352.089E-03
            3132            3126     353.844E-03     352.089E-03
            3117            3127     379.420E-03     378.412E-03
            3133            3127     379.420E-03     378.412E-03
            3118            3127     379.420E-03     378.412E-03
            3134            3127     379.420E-03     378.412E-03
            3118            3128     403.411E-03     402.903E-03
            3134            3128     403.411E-03     402.903E-03
            3119            3128     403.411E-03     402.903E-03
            3135            3128     403.411E-03     402.903E-03
            3119            3129     409.737E-03     414.847E-03
            3120            3129     409.737E-03     414.847E-03
            3135            3129     409.737E-03     414.847E-03
            3136            3129     409.737E-03     414.847E-03
            3120            3130     394.768E-03     406.430E-03
            3137            3130     394.768E-03     406.430E-03
            3121            3130     394.768E-03     406.430E-03
            3136            3130     394.768E-03     406.430E-03
            3137            3131     426.776E-03     426.995E-03
            3138            3131     426.776E-03     426.995E-03
            3122            3131     426.776E-03     426.995E-03
            3121            3131     426.776E-03     426.995E-03
            3124            3132     216.268E-03     210.876E-03
            3140            3132     216.268E-03     210.876E-03
            3123            3132     216.268E-03     210.876E-03
            3139            3132     216.268E-03     210.876E-03
            3140            3133     212.957E-03     214.395E-03
            3124            3133     212.957E-03     214.395E-03
            3125            3133     212.957E-03     214.395E-03
            3141            3133     212.957E-03     214.395E-03
            3126            3134     223.625E-03     217.570E-03
            3141            3134     223.625E-03     217.570E-03
            3125            3134     223.625E-03     217.570E-03
            3142            3134     223.625E-03     217.570E-03
            3127            3135     238.659E-03     227.122E-03
            3126            3135     238.659E-03     227.122E-03
            3143            3135     238.659E-03     227.122E-03
            3142            3135     238.659E-03     227.122E-03
            3143            3136     254.947E-03     241.171E-03
            3127            3136     254.947E-03     241.171E-03
            3128            3136     254.947E-03     241.171E-03
            3144            3136     254.947E-03     241.171E-03
            3128            3137     273.433E-03     257.725E-03
            3144            3137     273.433E-03     257.725E-03
            3129            3137     273.433E-03     257.725E-03
            3145            3137     273.433E-03     257.725E-03
            3145            3138     293.555E-03     276.510E-03
            3129            3138     293.555E-03     276.510E-03
            3130            3138     293.555E-03     276.510E-03
            3146            3138     293.555E-03     276.510E-03
            3131            3139     315.060E-03     296.910E-03
            3146            3139     315.060E-03     296.910E-03
            3147            3139     315.060E-03     296.910E-03
            3130            3139     315.060E-03     296.910E-03
            3132            3140     337.878E-03     318.709E-03
            3147            3140     337.878E-03     318.709E-03
            3131            3140     337.878E-03     318.709E-03
            3148            3140     337.878E-03     318.709E-03
            3149            3141     360.755E-03     340.805E-03
            3133            3141     360.755E-03     340.805E-03
            3148            3141     360.755E-03     340.805E-03
            3132            3141     360.755E-03     340.805E-03
            3134            3142     382.806E-03     361.931E-03
            3149            3142     382.806E-03     361.931E-03
            3133            3142     382.806E-03     361.931E-03
            3150            3142     382.806E-03     361.931E-03
            3135            3143     396.835E-03     376.406E-03
            3150            3143     396.835E-03     376.406E-03
            3151            3143     396.835E-03     376.406E-03
            3134            3143     396.835E-03     376.406E-03
            3135            3144     392.854E-03     375.143E-03
            3151            3144     392.854E-03     375.143E-03
            3152            3144     392.854E-03     375.143E-03
            3136            3144     392.854E-03     375.143E-03
            3136            3145     343.199E-03     334.895E-03
            3153            3145     343.199E-03     334.895E-03
            3137            3145     343.199E-03     334.895E-03
            3152            3145     343.199E-03     334.895E-03
            3138            3146     322.295E-03     317.593E-03
            3153            3146     322.295E-03     317.593E-03
            3137            3146     322.295E-03     317.593E-03
            3154            3146     322.295E-03     317.593E-03
            3139            3147     218.784E-03     238.363E-03
            3140            3147     218.784E-03     238.363E-03
            3155            3147     218.784E-03     238.363E-03
            3156            3147     218.784E-03     238.363E-03
            3157            3148     228.803E-03     227.930E-03
            3140            3148     228.803E-03     227.930E-03
            3156            3148     228.803E-03     227.930E-03
            3141            3148     228.803E-03     227.930E-03
            3157            3149     242.987E-03     228.706E-03
            3141            3149     242.987E-03     228.706E-03
            3158            3149     242.987E-03     228.706E-03
            3142            3149     242.987E-03     228.706E-03
            3158            3150     257.135E-03     236.504E-03
            3142            3150     257.135E-03     236.504E-03
            3143            3150     257.135E-03     236.504E-03
            3159            3150     257.135E-03     236.504E-03
            3144            3151     272.657E-03     247.706E-03
            3159            3151     272.657E-03     247.706E-03
            3143            3151     272.657E-03     247.706E-03
            3160            3151     272.657E-03     247.706E-03
            3145            3152     289.653E-03     261.406E-03
            3160            3152     289.653E-03     261.406E-03
            3161            3152     289.653E-03     261.406E-03
            3144            3152     289.653E-03     261.406E-03
            3145            3153     307.655E-03     276.689E-03
            3161            3153     307.655E-03     276.689E-03
            3162            3153     307.655E-03     276.689E-03
            3146            3153     307.655E-03     276.689E-03
            3146            3154     326.413E-03     292.932E-03
            3162            3154     326.413E-03     292.932E-03
            3163            3154     326.413E-03     292.932E-03
            3147            3154     326.413E-03     292.932E-03
            3163            3155     344.879E-03     309.310E-03
            3147            3155     344.879E-03     309.310E-03
            3148            3155     344.879E-03     309.310E-03
            3164            3155     344.879E-03     309.310E-03
            3164            3156     362.104E-03     324.102E-03
            3148            3156     362.104E-03     324.102E-03
            3149            3156     362.104E-03     324.102E-03
            3165            3156     362.104E-03     324.102E-03
            3149            3157     375.237E-03     335.063E-03
            3165            3157     375.237E-03     335.063E-03
            3166            3157     375.237E-03     335.063E-03
            3150            3157     375.237E-03     335.063E-03
            3167            3158     378.656E-03     335.945E-03
            3166            3158     378.656E-03     335.945E-03
            3150            3158     378.656E-03     335.945E-03
            3151            3158     378.656E-03     335.945E-03
            3152            3159     364.848E-03     318.577E-03
            3167            3159     364.848E-03     318.577E-03
            3168            3159     364.848E-03     318.577E-03
            3151            3159     364.848E-03     318.577E-03
            3153            3160     309.428E-03     264.154E-03
            3168            3160     309.428E-03     264.154E-03
            3152            3160     309.428E-03     264.154E-03
            3169            3160     309.428E-03     264.154E-03
            3169            3161     249.484E-03     238.969E-03
            3170            3161     249.484E-03     238.969E-03
            3153            3161     249.484E-03     238.969E-03
            3154            3161     249.484E-03     238.969E-03
            3172            3162     122.353E-03     136.759E-03
            3171            3162     122.353E-03     136.759E-03
            3155            3162     122.353E-03     136.759E-03
            3156            3162     122.353E-03     136.759E-03
            3157            3163     133.241E-03     130.556E-03
            3173            3163     133.241E-03     130.556E-03
            3156            3163     133.241E-03     130.556E-03
            3172            3163     133.241E-03     130.556E-03
            3174            3164     140.016E-03     131.497E-03
            3158            3164     140.016E-03     131.497E-03
            3173            3164     140.016E-03     131.497E-03
            3157            3164     140.016E-03     131.497E-03
            3158            3165     147.441E-03     136.014E-03
            3174            3165     147.441E-03     136.014E-03
            3159            3165     147.441E-03     136.014E-03
            3175            3165     147.441E-03     136.014E-03
            3176            3166     155.698E-03     141.661E-03
            3175            3166     155.698E-03     141.661E-03
            3159            3166     155.698E-03     141.661E-03
            3160            3166     155.698E-03     141.661E-03
            3161            3167     164.810E-03     148.718E-03
            3160            3167     164.810E-03     148.718E-03
            3177            3167     164.810E-03     148.718E-03
            3176            3167     164.810E-03     148.718E-03
            3162            3168     174.349E-03     156.539E-03
            3161            3168     174.349E-03     156.539E-03
            3177            3168     174.349E-03     156.539E-03
            3178            3168     174.349E-03     156.539E-03
            3179            3169     184.108E-03     164.648E-03
            3178            3169     184.108E-03     164.648E-03
            3162            3169     184.108E-03     164.648E-03
            3163            3169     184.108E-03     164.648E-03
            3163            3170     193.390E-03     172.503E-03
            3164            3170     193.390E-03     172.503E-03
            3180            3170     193.390E-03     172.503E-03
            3179            3170     193.390E-03     172.503E-03
            3165            3171     201.625E-03     179.210E-03
            3164            3171     201.625E-03     179.210E-03
            3180            3171     201.625E-03     179.210E-03
            3181            3171     201.625E-03     179.210E-03
            3166            3172     206.620E-03     182.597E-03
            3165            3172     206.620E-03     182.597E-03
            3182            3172     206.620E-03     182.597E-03
            3181            3172     206.620E-03     182.597E-03
            3167            3173     207.474E-03     181.149E-03
            3182            3173     207.474E-03     181.149E-03
            3166            3173     207.474E-03     181.149E-03
            3183            3173     207.474E-03     181.149E-03
            3167            3174     197.391E-03     168.173E-03
            3183            3174     197.391E-03     168.173E-03
            3168            3174     197.391E-03     168.173E-03
            3184            3174     197.391E-03     168.173E-03
            3168            3175     175.025E-03     141.541E-03
            3169            3175     175.025E-03     141.541E-03
            3184            3175     175.025E-03     141.541E-03
            3185            3175     175.025E-03     141.541E-03
            3186            3176     141.702E-03     135.050E-03
            3170            3176     141.702E-03     135.050E-03
            3185            3176     141.702E-03     135.050E-03
            3169            3176     141.702E-03     135.050E-03


  Minimum                            44.7854E-06     76.6045E-06
      At Element                            2640            2640
            Node                             566             566

  Maximum                                1.60213         1.67516
      At Element                            1073            1768
            Node                             317              16

           Total                     1.53697E+03     1.58723E+03


Field Output reported at element nodes for region: CRJ700-1.Region_4
   Computation algorithm: EXTRAPOLATE_COMPUTE_AVERAGE
   Averaged at nodes
   Averaging regions: ODB_REGIONS

   Element Label      Node Label         S.Mises         S.Mises
                                          @Loc 1          @Loc 2
-----------------------------------------------------------------
            1089               1     3.14192E-03     3.54779E-03
             545               1     3.14192E-03     3.54779E-03
            1688               4     48.2183E-03     68.8970E-03
            1617               4     48.2183E-03     68.8970E-03
            1074               5     10.0777E-03     10.3961E-03
             560               5     10.0777E-03     10.3961E-03
             640               6     47.6443E-06     102.842E-06
             625               7     155.127E-06     191.663E-06
            1673              11         1.37360         1.42569
            1602              11         1.37360         1.42569
            2656              18     117.696E-03     118.088E-03
            1752              18     117.696E-03     118.088E-03
            1737              20         1.57892         1.69091
            2641              20         1.57892         1.69091
            2720              22     172.768E-03     174.782E-03
            2384              22     172.768E-03     174.782E-03
            2369              23         1.04847         1.09797
            2705              23         1.04847         1.09797
            2529              26     21.0522E-03     21.6223E-03
            2915              26     21.0522E-03     21.6223E-03
            2544              30     2.56094E-03     3.57682E-03
            2930              30     2.56094E-03     3.57682E-03
            3010              32     154.843E-06     191.321E-06
            2995              34     47.4694E-06     102.847E-06
            1601              99     35.4472E-03     74.7468E-03
            1617              99     35.4472E-03     74.7468E-03
            1585             100     39.3736E-03     80.0223E-03
            1601             100     39.3736E-03     80.0223E-03
            1585             101     86.1099E-03     92.2362E-03
            1569             101     86.1099E-03     92.2362E-03
            1553             102     134.216E-03     145.656E-03
            1569             102     134.216E-03     145.656E-03
            1537             103     169.010E-03     206.178E-03
            1553             103     169.010E-03     206.178E-03
            1537             104     110.326E-03     140.007E-03
            1521             104     110.326E-03     140.007E-03
            1505             105     26.4358E-03     58.1415E-03
            1521             105     26.4358E-03     58.1415E-03
            1489             106     34.4035E-03     57.3231E-03
            1505             106     34.4035E-03     57.3231E-03
            1473             107     69.0176E-03     77.1340E-03
            1489             107     69.0176E-03     77.1340E-03
            1457             108     104.170E-03     104.343E-03
            1473             108     104.170E-03     104.343E-03
            1457             109     141.993E-03     149.331E-03
            1441             109     141.993E-03     149.331E-03
            1441             110     166.500E-03     199.465E-03
            1425             110     166.500E-03     199.465E-03
            1425             111     94.2627E-03     123.693E-03
            1409             111     94.2627E-03     123.693E-03
            1409             112     22.4867E-03     38.6625E-03
            1393             112     22.4867E-03     38.6625E-03
            1393             113     45.5704E-03     49.1287E-03
            1377             113     45.5704E-03     49.1287E-03
            1361             114     72.0347E-03     71.7682E-03
            1377             114     72.0347E-03     71.7682E-03
            1345             115     97.7191E-03     93.2202E-03
            1361             115     97.7191E-03     93.2202E-03
            1345             116     124.868E-03     126.911E-03
            1329             116     124.868E-03     126.911E-03
            1329             117     140.320E-03     165.528E-03
            1313             117     140.320E-03     165.528E-03
            1313             118     85.9095E-03     109.409E-03
            1297             118     85.9095E-03     109.409E-03
            1281             119     42.2820E-03     45.0817E-03
            1297             119     42.2820E-03     45.0817E-03
            1281             120     63.8523E-03     58.0073E-03
            1265             120     63.8523E-03     58.0073E-03
            1249             121     81.3794E-03     72.1520E-03
            1265             121     81.3794E-03     72.1520E-03
            1249             122     99.2005E-03     94.9514E-03
            1233             122     99.2005E-03     94.9514E-03
            1233             123     107.222E-03     122.219E-03
            1217             123     107.222E-03     122.219E-03
            1217             124     78.8762E-03     96.5865E-03
            1201             124     78.8762E-03     96.5865E-03
            1185             125     59.3038E-03     64.7320E-03
            1201             125     59.3038E-03     64.7320E-03
            1185             126     72.9027E-03     64.2186E-03
            1169             126     72.9027E-03     64.2186E-03
            1153             127     79.6055E-03     70.7587E-03
            1169             127     79.6055E-03     70.7587E-03
            1137             128     86.3468E-03     76.8815E-03
            1153             128     86.3468E-03     76.8815E-03
            1137             129     93.5270E-03     87.4503E-03
            1121             129     93.5270E-03     87.4503E-03
            1121             130     91.9815E-03     103.895E-03
            1105             130     91.9815E-03     103.895E-03
            1105             131     47.0960E-03     57.2217E-03
            1089             131     47.0960E-03     57.2217E-03
             546             132     3.20752E-03     3.61638E-03
            1088             132     3.20752E-03     3.61638E-03
             545             132     3.20752E-03     3.61638E-03
            1089             132     3.20752E-03     3.61638E-03
             546             133     3.38795E-03     3.80129E-03
            1087             133     3.38795E-03     3.80129E-03
             547             133     3.38795E-03     3.80129E-03
            1088             133     3.38795E-03     3.80129E-03
            1087             134     3.65910E-03     4.07268E-03
             547             134     3.65910E-03     4.07268E-03
            1086             134     3.65910E-03     4.07268E-03
             548             134     3.65910E-03     4.07268E-03
            1086             135     4.00549E-03     4.41304E-03
             549             135     4.00549E-03     4.41304E-03
            1085             135     4.00549E-03     4.41304E-03
             548             135     4.00549E-03     4.41304E-03
            1085             136     4.40952E-03     4.80717E-03
            1084             136     4.40952E-03     4.80717E-03
             549             136     4.40952E-03     4.80717E-03
             550             136     4.40952E-03     4.80717E-03
             551             137     4.85674E-03     5.24307E-03
             550             137     4.85674E-03     5.24307E-03
            1083             137     4.85674E-03     5.24307E-03
            1084             137     4.85674E-03     5.24307E-03
             551             138     5.33646E-03     5.71086E-03
            1082             138     5.33646E-03     5.71086E-03
             552             138     5.33646E-03     5.71086E-03
            1083             138     5.33646E-03     5.71086E-03
            1082             139     5.84062E-03     6.20357E-03
            1081             139     5.84062E-03     6.20357E-03
             552             139     5.84062E-03     6.20357E-03
             553             139     5.84062E-03     6.20357E-03
             554             140     6.36310E-03     6.71535E-03
            1080             140     6.36310E-03     6.71535E-03
            1081             140     6.36310E-03     6.71535E-03
             553             140     6.36310E-03     6.71535E-03
             555             141     6.90001E-03     7.24225E-03
            1079             141     6.90001E-03     7.24225E-03
            1080             141     6.90001E-03     7.24225E-03
             554             141     6.90001E-03     7.24225E-03
            1079             142     7.44731E-03     7.78078E-03
            1078             142     7.44731E-03     7.78078E-03
             556             142     7.44731E-03     7.78078E-03
             555             142     7.44731E-03     7.78078E-03
             556             143     8.00380E-03     8.32908E-03
             557             143     8.00380E-03     8.32908E-03
            1078             143     8.00380E-03     8.32908E-03
            1077             143     8.00380E-03     8.32908E-03
            1076             144     8.56853E-03     8.88703E-03
            1077             144     8.56853E-03     8.88703E-03
             557             144     8.56853E-03     8.88703E-03
             558             144     8.56853E-03     8.88703E-03
             558             145     9.14535E-03     9.45893E-03
             559             145     9.14535E-03     9.45893E-03
            1076             145     9.14535E-03     9.45893E-03
            1075             145     9.14535E-03     9.45893E-03
             559             146     9.75823E-03     10.0729E-03
            1075             146     9.75823E-03     10.0729E-03
             560             146     9.75823E-03     10.0729E-03
            1074             146     9.75823E-03     10.0729E-03
             576             147     330.714E-06     347.722E-06
             560             147     330.714E-06     347.722E-06
             592             148     250.592E-06     248.871E-06
             576             148     250.592E-06     248.871E-06
             608             149     166.192E-06     168.438E-06
             592             149     166.192E-06     168.438E-06
             624             150     90.7798E-06     85.0228E-06
             608             150     90.7798E-06     85.0228E-06
             624             151     45.3393E-06     77.0169E-06
             640             151     45.3393E-06     77.0169E-06
             640             152     87.9145E-06     98.1629E-06
             639             152     87.9145E-06     98.1629E-06
             639             153     143.997E-06     115.202E-06
             638             153     143.997E-06     115.202E-06
             638             154     177.106E-06     152.519E-06
             637             154     177.106E-06     152.519E-06
             636             155     196.335E-06     172.926E-06
             637             155     196.335E-06     172.926E-06
             636             156     202.213E-06     181.136E-06
             635             156     202.213E-06     181.136E-06
             635             157     204.001E-06     183.476E-06
             634             157     204.001E-06     183.476E-06
             634             158     201.729E-06     182.837E-06
             633             158     201.729E-06     182.837E-06
             633             159     199.162E-06     181.521E-06
             632             159     199.162E-06     181.521E-06
             631             160     195.609E-06     179.467E-06
             632             160     195.609E-06     179.467E-06
             631             161     192.230E-06     177.976E-06
             630             161     192.230E-06     177.976E-06
             629             162     188.893E-06     176.293E-06
             630             162     188.893E-06     176.293E-06
             628             163     185.504E-06     175.512E-06
             629             163     185.504E-06     175.512E-06
             627             164     182.001E-06     174.817E-06
             628             164     182.001E-06     174.817E-06
             627             165     178.024E-06     176.526E-06
             626             165     178.024E-06     176.526E-06
             625             166     165.173E-06     185.160E-06
             626             166     165.173E-06     185.160E-06
             625             167     167.689E-06     183.189E-06
             609             167     167.689E-06     183.189E-06
             609             168     176.728E-06     161.853E-06
             593             168     176.728E-06     161.853E-06
             577             169     169.767E-06     147.862E-06
             593             169     169.767E-06     147.862E-06
             561             170     164.432E-06     148.228E-06
             577             170     164.432E-06     148.228E-06
             561             171     145.013E-06     154.999E-06
             545             171     145.013E-06     154.999E-06
            1074             194     45.3998E-03     55.3811E-03
            1090             194     45.3998E-03     55.3811E-03
            1090             195     91.0274E-03     100.386E-03
            1106             195     91.0274E-03     100.386E-03
            1106             196     137.764E-03     134.520E-03
            1122             196     137.764E-03     134.520E-03
            1122             197     190.402E-03     185.713E-03
            1138             197     190.402E-03     185.713E-03
            1154             198     237.565E-03     244.231E-03
            1138             198     237.565E-03     244.231E-03
            1154             199     296.743E-03     293.525E-03
            1170             199     296.743E-03     293.525E-03
            1186             200     346.864E-03     362.095E-03
            1170             200     346.864E-03     362.095E-03
            1186             201     330.282E-03     341.570E-03
            1202             201     330.282E-03     341.570E-03
            1218             202     332.941E-03     322.152E-03
            1202             202     332.941E-03     322.152E-03
            1218             203     406.891E-03     408.672E-03
            1234             203     406.891E-03     408.672E-03
            1234             204     469.293E-03     480.700E-03
            1250             204     469.293E-03     480.700E-03
            1250             205     532.460E-03     532.972E-03
            1266             205     532.460E-03     532.972E-03
            1282             206     584.220E-03     599.876E-03
            1266             206     584.220E-03     599.876E-03
            1282             207     566.528E-03     582.652E-03
            1298             207     566.528E-03     582.652E-03
            1298             208     579.996E-03     565.224E-03
            1314             208     579.996E-03     565.224E-03
            1314             209     651.948E-03     660.278E-03
            1330             209     651.948E-03     660.278E-03
            1330             210     721.599E-03     727.597E-03
            1346             210     721.599E-03     727.597E-03
            1346             211     774.751E-03     792.528E-03
            1362             211     774.751E-03     792.528E-03
            1362             212     835.570E-03     839.051E-03
            1378             212     835.570E-03     839.051E-03
            1394             213     881.434E-03     896.906E-03
            1378             213     881.434E-03     896.906E-03
            1394             214     852.592E-03     875.677E-03
            1410             214     852.592E-03     875.677E-03
            1410             215     869.489E-03     854.474E-03
            1426             215     869.489E-03     854.474E-03
            1426             216     946.108E-03     957.576E-03
            1442             216     946.108E-03     957.576E-03
            1458             217         1.01788         1.02912
            1442             217         1.01788         1.02912
            1458             218         1.07140         1.09445
            1474             218         1.07140         1.09445
            1490             219         1.13098         1.13744
            1474             219         1.13098         1.13744
            1506             220         1.17272         1.18825
            1490             220         1.17272         1.18825
            1506             221         1.13710         1.16723
            1522             221         1.13710         1.16723
            1522             222         1.15583         1.14776
            1538             222         1.15583         1.14776
            1554             223         1.24693         1.25438
            1538             223         1.24693         1.25438
            1570             224         1.31007         1.34506
            1554             224         1.31007         1.34506
            1586             225         1.37530         1.38110
            1570             225         1.37530         1.38110
            1602             226         1.41183         1.43118
            1586             226         1.41183         1.43118
            1752             339     84.6668E-03     64.3278E-03
            1736             339     84.6668E-03     64.3278E-03
            1736             340     141.571E-03     139.705E-03
            1720             340     141.571E-03     139.705E-03
            1720             341     198.214E-03     224.884E-03
            1704             341     198.214E-03     224.884E-03
            1688             342     132.342E-03     154.678E-03
            1704             342     132.342E-03     154.678E-03
            1688             343     83.5114E-03     109.010E-03
            1687             343     83.5114E-03     109.010E-03
            1616             343     83.5114E-03     109.010E-03
            1617             343     83.5114E-03     109.010E-03
            1615             344     158.659E-03     191.589E-03
            1616             344     158.659E-03     191.589E-03
            1687             344     158.659E-03     191.589E-03
            1686             344     158.659E-03     191.589E-03
            1686             345     240.037E-03     276.297E-03
            1685             345     240.037E-03     276.297E-03
            1614             345     240.037E-03     276.297E-03
            1615             345     240.037E-03     276.297E-03
            1613             346     323.395E-03     361.014E-03
            1685             346     323.395E-03     361.014E-03
            1684             346     323.395E-03     361.014E-03
            1614             346     323.395E-03     361.014E-03
            1684             347     407.476E-03     445.493E-03
            1683             347     407.476E-03     445.493E-03
            1612             347     407.476E-03     445.493E-03
            1613             347     407.476E-03     445.493E-03
            1683             348     491.656E-03     529.724E-03
            1682             348     491.656E-03     529.724E-03
            1612             348     491.656E-03     529.724E-03
            1611             348     491.656E-03     529.724E-03
            1611             349     575.870E-03     613.722E-03
            1682             349     575.870E-03     613.722E-03
            1610             349     575.870E-03     613.722E-03
            1681             349     575.870E-03     613.722E-03
            1609             350     659.594E-03     697.481E-03
            1680             350     659.594E-03     697.481E-03
            1681             350     659.594E-03     697.481E-03
            1610             350     659.594E-03     697.481E-03
            1679             351     743.153E-03     780.696E-03
            1680             351     743.153E-03     780.696E-03
            1608             351     743.153E-03     780.696E-03
            1609             351     743.153E-03     780.696E-03
            1678             352     826.045E-03     863.415E-03
            1608             352     826.045E-03     863.415E-03
            1679             352     826.045E-03     863.415E-03
            1607             352     826.045E-03     863.415E-03
            1678             353     909.327E-03     945.455E-03
            1606             353     909.327E-03     945.455E-03
            1607             353     909.327E-03     945.455E-03
            1677             353     909.327E-03     945.455E-03
            1676             354     992.564E-03         1.02737
            1606             354     992.564E-03         1.02737
            1605             354     992.564E-03         1.02737
            1677             354     992.564E-03         1.02737
            1676             355         1.07989         1.11169
            1675             355         1.07989         1.11169
            1605             355         1.07989         1.11169
            1604             355         1.07989         1.11169
            1675             356         1.17142         1.20251
            1603             356         1.17142         1.20251
            1604             356         1.17142         1.20251
            1674             356         1.17142         1.20251
            1674             357         1.29499         1.33803
            1602             357         1.29499         1.33803
            1673             357         1.29499         1.33803
            1603             357         1.29499         1.33803
            2656             374     125.831E-03     163.130E-03
            2655             374     125.831E-03     163.130E-03
            1752             374     125.831E-03     163.130E-03
            1751             374     125.831E-03     163.130E-03
            1751             375     168.402E-03     254.715E-03
            1750             375     168.402E-03     254.715E-03
            2654             375     168.402E-03     254.715E-03
            2655             375     168.402E-03     254.715E-03
            1750             376     246.311E-03     348.740E-03
            1749             376     246.311E-03     348.740E-03
            2654             376     246.311E-03     348.740E-03
            2653             376     246.311E-03     348.740E-03
            2653             377     335.982E-03     443.748E-03
            1749             377     335.982E-03     443.748E-03
            1748             377     335.982E-03     443.748E-03
            2652             377     335.982E-03     443.748E-03
            2651             378     430.374E-03     539.234E-03
            2652             378     430.374E-03     539.234E-03
            1747             378     430.374E-03     539.234E-03
            1748             378     430.374E-03     539.234E-03
            1747             379     526.522E-03     635.917E-03
            2650             379     526.522E-03     635.917E-03
            2651             379     526.522E-03     635.917E-03
            1746             379     526.522E-03     635.917E-03
            1746             380     623.659E-03     732.875E-03
            2650             380     623.659E-03     732.875E-03
            1745             380     623.659E-03     732.875E-03
            2649             380     623.659E-03     732.875E-03
            1745             381     720.919E-03     830.418E-03
            2648             381     720.919E-03     830.418E-03
            1744             381     720.919E-03     830.418E-03
            2649             381     720.919E-03     830.418E-03
            1744             382     818.941E-03     927.424E-03
            2648             382     818.941E-03     927.424E-03
            1743             382     818.941E-03     927.424E-03
            2647             382     818.941E-03     927.424E-03
            2646             383     915.902E-03         1.02507
            2647             383     915.902E-03         1.02507
            1743             383     915.902E-03         1.02507
            1742             383     915.902E-03         1.02507
            1741             384         1.01408         1.12115
            2645             384         1.01408         1.12115
            1742             384         1.01408         1.12115
            2646             384         1.01408         1.12115
            1740             385         1.10966         1.21759
            2645             385         1.10966         1.21759
            1741             385         1.10966         1.21759
            2644             385         1.10966         1.21759
            1740             386         1.21040         1.31440
            2643             386         1.21040         1.31440
            1739             386         1.21040         1.31440
            2644             386         1.21040         1.31440
            1739             387         1.30350         1.40670
            2643             387         1.30350         1.40670
            1738             387         1.30350         1.40670
            2642             387         1.30350         1.40670
            2642             388         1.45960         1.57171
            1737             388         1.45960         1.57171
            2641             388         1.45960         1.57171
            1738             388         1.45960         1.57171
            1737             389         1.62422         1.65501
            1721             389         1.62422         1.65501
            1705             390         1.56451         1.57020
            1721             390         1.56451         1.57020
            1689             391         1.44696         1.45993
            1705             391         1.44696         1.45993
            1673             392         1.36549         1.37667
            1689             392         1.36549         1.37667
            2704             412     208.042E-03     212.761E-03
            2720             412     208.042E-03     212.761E-03
            2688             413     166.585E-03     159.515E-03
            2704             413     166.585E-03     159.515E-03
            2672             414     161.697E-03     149.139E-03
            2688             414     161.697E-03     149.139E-03
            2672             415     185.266E-03     184.115E-03
            2656             415     185.266E-03     184.115E-03
            2657             420         1.45779         1.48021
            2641             420         1.45779         1.48021
            2657             421         1.38868         1.40875
            2673             421         1.38868         1.40875
            2689             422         1.33233         1.38303
            2673             422         1.33233         1.38303
            2705             423         1.15131         1.10931
            2689             423         1.15131         1.10931
            2369             444         1.00794         1.06037
            2385             444         1.00794         1.06037
            2385             445     845.803E-03     795.880E-03
            2401             445     845.803E-03     795.880E-03
            2401             446     800.527E-03     835.889E-03
            2417             446     800.527E-03     835.889E-03
            2433             447     830.101E-03     867.725E-03
            2417             447     830.101E-03     867.725E-03
            2433             448     707.275E-03     699.308E-03
            2449             448     707.275E-03     699.308E-03
            2449             449     561.857E-03     578.212E-03
            2465             449     561.857E-03     578.212E-03
            2481             450     445.703E-03     434.436E-03
            2465             450     445.703E-03     434.436E-03
            2481             451     315.100E-03     307.927E-03
            2497             451     315.100E-03     307.927E-03
            2513             452     200.724E-03     227.302E-03
            2497             452     200.724E-03     227.302E-03
            2513             453     97.4471E-03     124.641E-03
            2529             453     97.4471E-03     124.641E-03
            2370             507         1.01716         1.05466
            2705             507         1.01716         1.05466
            2369             507         1.01716         1.05466
            2706             507         1.01716         1.05466
            2707             508     966.822E-03     989.676E-03
            2706             508     966.822E-03     989.676E-03
            2370             508     966.822E-03     989.676E-03
            2371             508     966.822E-03     989.676E-03
            2707             509     911.276E-03     933.012E-03
            2708             509     911.276E-03     933.012E-03
            2372             509     911.276E-03     933.012E-03
            2371             509     911.276E-03     933.012E-03
            2372             510     842.179E-03     866.143E-03
            2708             510     842.179E-03     866.143E-03
            2373             510     842.179E-03     866.143E-03
            2709             510     842.179E-03     866.143E-03
            2374             511     775.317E-03     799.484E-03
            2710             511     775.317E-03     799.484E-03
            2373             511     775.317E-03     799.484E-03
            2709             511     775.317E-03     799.484E-03
            2710             512     707.224E-03     731.290E-03
            2374             512     707.224E-03     731.290E-03
            2375             512     707.224E-03     731.290E-03
            2711             512     707.224E-03     731.290E-03
            2375             513     639.597E-03     663.672E-03
            2376             513     639.597E-03     663.672E-03
            2712             513     639.597E-03     663.672E-03
            2711             513     639.597E-03     663.672E-03
            2712             514     572.152E-03     596.145E-03
            2376             514     572.152E-03     596.145E-03
            2377             514     572.152E-03     596.145E-03
            2713             514     572.152E-03     596.145E-03
            2713             515     505.646E-03     529.585E-03
            2378             515     505.646E-03     529.585E-03
            2714             515     505.646E-03     529.585E-03
            2377             515     505.646E-03     529.585E-03
            2379             516     440.559E-03     464.269E-03
            2714             516     440.559E-03     464.269E-03
            2715             516     440.559E-03     464.269E-03
            2378             516     440.559E-03     464.269E-03
            2380             517     377.753E-03     401.024E-03
            2715             517     377.753E-03     401.024E-03
            2716             517     377.753E-03     401.024E-03
            2379             517     377.753E-03     401.024E-03
            2717             518     318.808E-03     341.038E-03
            2716             518     318.808E-03     341.038E-03
            2380             518     318.808E-03     341.038E-03
            2381             518     318.808E-03     341.038E-03
            2382             519     266.114E-03     287.106E-03
            2717             519     266.114E-03     287.106E-03
            2718             519     266.114E-03     287.106E-03
            2381             519     266.114E-03     287.106E-03
            2382             520     225.843E-03     243.181E-03
            2718             520     225.843E-03     243.181E-03
            2719             520     225.843E-03     243.181E-03
            2383             520     225.843E-03     243.181E-03
            2719             521     191.342E-03     199.572E-03
            2720             521     191.342E-03     199.572E-03
            2384             521     191.342E-03     199.572E-03
            2383             521     191.342E-03     199.572E-03
            2384             522     169.445E-03     163.523E-03
            2400             522     169.445E-03     163.523E-03
            2416             523     197.221E-03     197.831E-03
            2400             523     197.221E-03     197.831E-03
            2432             524     166.699E-03     178.073E-03
            2416             524     166.699E-03     178.073E-03
            2448             525     155.590E-03     162.221E-03
            2432             525     155.590E-03     162.221E-03
            2464             526     182.301E-03     160.598E-03
            2448             526     182.301E-03     160.598E-03
            2464             527     198.021E-03     174.803E-03
            2480             527     198.021E-03     174.803E-03
            2496             528     213.582E-03     189.778E-03
            2480             528     213.582E-03     189.778E-03
            2496             529     230.473E-03     215.964E-03
            2512             529     230.473E-03     215.964E-03
            2528             530     228.330E-03     255.789E-03
            2512             530     228.330E-03     255.789E-03
            2544             531     112.956E-03     135.668E-03
            2528             531     112.956E-03     135.668E-03
            2929             532     2.93180E-03     3.92174E-03
            2930             532     2.93180E-03     3.92174E-03
            2543             532     2.93180E-03     3.92174E-03
            2544             532     2.93180E-03     3.92174E-03
            2543             533     3.81730E-03     4.73986E-03
            2542             533     3.81730E-03     4.73986E-03
            2928             533     3.81730E-03     4.73986E-03
            2929             533     3.81730E-03     4.73986E-03
            2542             534     4.90999E-03     5.75616E-03
            2928             534     4.90999E-03     5.75616E-03
            2541             534     4.90999E-03     5.75616E-03
            2927             534     4.90999E-03     5.75616E-03
            2541             535     6.09795E-03     6.88120E-03
            2927             535     6.09795E-03     6.88120E-03
            2926             535     6.09795E-03     6.88120E-03
            2540             535     6.09795E-03     6.88120E-03
            2926             536     7.33364E-03     8.06822E-03
            2539             536     7.33364E-03     8.06822E-03
            2925             536     7.33364E-03     8.06822E-03
            2540             536     7.33364E-03     8.06822E-03
            2538             537     8.59599E-03     9.29322E-03
            2925             537     8.59599E-03     9.29322E-03
            2924             537     8.59599E-03     9.29322E-03
            2539             537     8.59599E-03     9.29322E-03
            2924             538     9.87486E-03     10.5425E-03
            2538             538     9.87486E-03     10.5425E-03
            2923             538     9.87486E-03     10.5425E-03
            2537             538     9.87486E-03     10.5425E-03
            2536             539     11.1645E-03     11.8085E-03
            2923             539     11.1645E-03     11.8085E-03
            2922             539     11.1645E-03     11.8085E-03
            2537             539     11.1645E-03     11.8085E-03
            2536             540     12.4614E-03     13.0861E-03
            2535             540     12.4614E-03     13.0861E-03
            2922             540     12.4614E-03     13.0861E-03
            2921             540     12.4614E-03     13.0861E-03
            2921             541     13.7638E-03     14.3723E-03
            2920             541     13.7638E-03     14.3723E-03
            2534             541     13.7638E-03     14.3723E-03
            2535             541     13.7638E-03     14.3723E-03
            2534             542     15.0693E-03     15.6645E-03
            2533             542     15.0693E-03     15.6645E-03
            2920             542     15.0693E-03     15.6645E-03
            2919             542     15.0693E-03     15.6645E-03
            2532             543     16.3781E-03     16.9617E-03
            2533             543     16.3781E-03     16.9617E-03
            2919             543     16.3781E-03     16.9617E-03
            2918             543     16.3781E-03     16.9617E-03
            2531             544     17.6903E-03     18.2645E-03
            2532             544     17.6903E-03     18.2645E-03
            2918             544     17.6903E-03     18.2645E-03
            2917             544     17.6903E-03     18.2645E-03
            2530             545     19.0105E-03     19.5779E-03
            2531             545     19.0105E-03     19.5779E-03
            2917             545     19.0105E-03     19.5779E-03
            2916             545     19.0105E-03     19.5779E-03
            2530             546     20.3635E-03     20.9304E-03
            2916             546     20.3635E-03     20.9304E-03
            2915             546     20.3635E-03     20.9304E-03
            2529             546     20.3635E-03     20.9304E-03
            3010             582     167.393E-06     182.911E-06
            2994             582     167.393E-06     182.911E-06
            2978             583     176.519E-06     161.637E-06
            2994             583     176.519E-06     161.637E-06
            2978             584     169.692E-06     147.647E-06
            2962             584     169.692E-06     147.647E-06
            2946             585     164.378E-06     148.161E-06
            2962             585     164.378E-06     148.161E-06
            2930             586     144.997E-06     155.068E-06
            2946             586     144.997E-06     155.068E-06
            2979             596     44.7854E-06     76.6045E-06
            2995             596     44.7854E-06     76.6045E-06
            2979             597     89.7259E-06     84.0537E-06
            2963             597     89.7259E-06     84.0537E-06
            2947             598     164.918E-06     167.155E-06
            2963             598     164.918E-06     167.155E-06
            2947             599     249.046E-06     247.304E-06
            2931             599     249.046E-06     247.304E-06
            2915             600     328.773E-06     345.900E-06
            2931             600     328.773E-06     345.900E-06
            3009             616     164.899E-06     184.806E-06
            3010             616     164.899E-06     184.806E-06
            3008             617     177.739E-06     176.167E-06
            3009             617     177.739E-06     176.167E-06
            3007             618     181.685E-06     174.465E-06
            3008             618     181.685E-06     174.465E-06
            3006             619     185.171E-06     175.151E-06
            3007             619     185.171E-06     175.151E-06
            3006             620     188.535E-06     175.914E-06
            3005             620     188.535E-06     175.914E-06
            3005             621     191.854E-06     177.574E-06
            3004             621     191.854E-06     177.574E-06
            3003             622     195.216E-06     179.044E-06
            3004             622     195.216E-06     179.044E-06
            3002             623     198.759E-06     181.086E-06
            3003             623     198.759E-06     181.086E-06
            3002             624     201.333E-06     182.410E-06
            3001             624     201.333E-06     182.410E-06
            3001             625     203.642E-06     183.081E-06
            3000             625     203.642E-06     183.081E-06
            3000             626     201.941E-06     180.834E-06
            2999             626     201.941E-06     180.834E-06
            2998             627     196.201E-06     172.772E-06
            2999             627     196.201E-06     172.772E-06
            2997             628     177.137E-06     152.558E-06
            2998             628     177.137E-06     152.558E-06
            2996             629     144.263E-06     115.496E-06
            2997             629     144.263E-06     115.496E-06
            2995             630     88.0426E-06     98.3803E-06
            2996             630     88.0426E-06     98.3803E-06
             545            1130     144.224E-06     155.891E-06
             562            1130     144.224E-06     155.891E-06
             561            1130     144.224E-06     155.891E-06
             546            1130     144.224E-06     155.891E-06
             546            1131     144.762E-06     156.179E-06
             562            1131     144.762E-06     156.179E-06
             563            1131     144.762E-06     156.179E-06
             547            1131     144.762E-06     156.179E-06
             547            1132     146.864E-06     157.378E-06
             563            1132     146.864E-06     157.378E-06
             564            1132     146.864E-06     157.378E-06
             548            1132     146.864E-06     157.378E-06
             565            1133     148.214E-06     161.525E-06
             549            1133     148.214E-06     161.525E-06
             564            1133     148.214E-06     161.525E-06
             548            1133     148.214E-06     161.525E-06
             565            1134     150.076E-06     165.925E-06
             566            1134     150.076E-06     165.925E-06
             549            1134     150.076E-06     165.925E-06
             550            1134     150.076E-06     165.925E-06
             550            1135     153.044E-06     170.710E-06
             566            1135     153.044E-06     170.710E-06
             567            1135     153.044E-06     170.710E-06
             551            1135     153.044E-06     170.710E-06
             567            1136     156.756E-06     176.029E-06
             568            1136     156.756E-06     176.029E-06
             552            1136     156.756E-06     176.029E-06
             551            1136     156.756E-06     176.029E-06
             552            1137     161.400E-06     181.816E-06
             569            1137     161.400E-06     181.816E-06
             568            1137     161.400E-06     181.816E-06
             553            1137     161.400E-06     181.816E-06
             554            1138     166.536E-06     187.867E-06
             569            1138     166.536E-06     187.867E-06
             570            1138     166.536E-06     187.867E-06
             553            1138     166.536E-06     187.867E-06
             555            1139     172.222E-06     194.264E-06
             554            1139     172.222E-06     194.264E-06
             570            1139     172.222E-06     194.264E-06
             571            1139     172.222E-06     194.264E-06
             571            1140     177.760E-06     200.412E-06
             556            1140     177.760E-06     200.412E-06
             572            1140     177.760E-06     200.412E-06
             555            1140     177.760E-06     200.412E-06
             556            1141     183.562E-06     207.212E-06
             557            1141     183.562E-06     207.212E-06
             572            1141     183.562E-06     207.212E-06
             573            1141     183.562E-06     207.212E-06
             557            1142     190.615E-06     215.088E-06
             573            1142     190.615E-06     215.088E-06
             558            1142     190.615E-06     215.088E-06
             574            1142     190.615E-06     215.088E-06
             559            1143     213.884E-06     238.427E-06
             558            1143     213.884E-06     238.427E-06
             575            1143     213.884E-06     238.427E-06
             574            1143     213.884E-06     238.427E-06
             576            1144     282.118E-06     302.902E-06
             575            1144     282.118E-06     302.902E-06
             560            1144     282.118E-06     302.902E-06
             559            1144     282.118E-06     302.902E-06
             561            1145     160.210E-06     152.122E-06
             562            1145     160.210E-06     152.122E-06
             577            1145     160.210E-06     152.122E-06
             578            1145     160.210E-06     152.122E-06
             563            1146     154.851E-06     158.085E-06
             578            1146     154.851E-06     158.085E-06
             579            1146     154.851E-06     158.085E-06
             562            1146     154.851E-06     158.085E-06
             564            1147     154.274E-06     161.471E-06
             580            1147     154.274E-06     161.471E-06
             579            1147     154.274E-06     161.471E-06
             563            1147     154.274E-06     161.471E-06
             581            1148     155.422E-06     164.438E-06
             564            1148     155.422E-06     164.438E-06
             580            1148     155.422E-06     164.438E-06
             565            1148     155.422E-06     164.438E-06
             566            1149     157.645E-06     167.980E-06
             565            1149     157.645E-06     167.980E-06
             581            1149     157.645E-06     167.980E-06
             582            1149     157.645E-06     167.980E-06
             567            1150     160.917E-06     172.057E-06
             566            1150     160.917E-06     172.057E-06
             583            1150     160.917E-06     172.057E-06
             582            1150     160.917E-06     172.057E-06
             568            1151     164.966E-06     176.968E-06
             567            1151     164.966E-06     176.968E-06
             583            1151     164.966E-06     176.968E-06
             584            1151     164.966E-06     176.968E-06
             584            1152     169.814E-06     182.449E-06
             568            1152     169.814E-06     182.449E-06
             585            1152     169.814E-06     182.449E-06
             569            1152     169.814E-06     182.449E-06
             570            1153     175.694E-06     188.726E-06
             586            1153     175.694E-06     188.726E-06
             569            1153     175.694E-06     188.726E-06
             585            1153     175.694E-06     188.726E-06
             571            1154     182.080E-06     195.681E-06
             586            1154     182.080E-06     195.681E-06
             587            1154     182.080E-06     195.681E-06
             570            1154     182.080E-06     195.681E-06
             588            1155     189.696E-06     203.315E-06
             571            1155     189.696E-06     203.315E-06
             587            1155     189.696E-06     203.315E-06
             572            1155     189.696E-06     203.315E-06
             572            1156     196.461E-06     211.155E-06
             589            1156     196.461E-06     211.155E-06
             588            1156     196.461E-06     211.155E-06
             573            1156     196.461E-06     211.155E-06
             590            1157     202.304E-06     217.402E-06
             574            1157     202.304E-06     217.402E-06
             573            1157     202.304E-06     217.402E-06
             589            1157     202.304E-06     217.402E-06
             574            1158     214.131E-06     225.941E-06
             591            1158     214.131E-06     225.941E-06
             575            1158     214.131E-06     225.941E-06
             590            1158     214.131E-06     225.941E-06
             591            1159     236.398E-06     240.371E-06
             592            1159     236.398E-06     240.371E-06
             575            1159     236.398E-06     240.371E-06
             576            1159     236.398E-06     240.371E-06
             578            1160     169.223E-06     151.764E-06
             577            1160     169.223E-06     151.764E-06
             593            1160     169.223E-06     151.764E-06
             594            1160     169.223E-06     151.764E-06
             594            1161     165.428E-06     160.297E-06
             578            1161     165.428E-06     160.297E-06
             595            1161     165.428E-06     160.297E-06
             579            1161     165.428E-06     160.297E-06
             596            1162     161.763E-06     165.836E-06
             579            1162     161.763E-06     165.836E-06
             580            1162     161.763E-06     165.836E-06
             595            1162     161.763E-06     165.836E-06
             581            1163     163.022E-06     167.533E-06
             597            1163     163.022E-06     167.533E-06
             596            1163     163.022E-06     167.533E-06
             580            1163     163.022E-06     167.533E-06
             582            1164     165.863E-06     169.974E-06
             597            1164     165.863E-06     169.974E-06
             598            1164     165.863E-06     169.974E-06
             581            1164     165.863E-06     169.974E-06
             583            1165     169.150E-06     173.494E-06
             582            1165     169.150E-06     173.494E-06
             599            1165     169.150E-06     173.494E-06
             598            1165     169.150E-06     173.494E-06
             600            1166     173.296E-06     177.564E-06
             584            1166     173.296E-06     177.564E-06
             599            1166     173.296E-06     177.564E-06
             583            1166     173.296E-06     177.564E-06
             600            1167     178.230E-06     182.584E-06
             585            1167     178.230E-06     182.584E-06
             601            1167     178.230E-06     182.584E-06
             584            1167     178.230E-06     182.584E-06
             585            1168     183.952E-06     188.434E-06
             601            1168     183.952E-06     188.434E-06
             602            1168     183.952E-06     188.434E-06
             586            1168     183.952E-06     188.434E-06
             586            1169     191.037E-06     195.308E-06
             603            1169     191.037E-06     195.308E-06
             602            1169     191.037E-06     195.308E-06
             587            1169     191.037E-06     195.308E-06
             588            1170     198.401E-06     203.149E-06
             603            1170     198.401E-06     203.149E-06
             604            1170     198.401E-06     203.149E-06
             587            1170     198.401E-06     203.149E-06
             589            1171     205.933E-06     210.176E-06
             605            1171     205.933E-06     210.176E-06
             604            1171     205.933E-06     210.176E-06
             588            1171     205.933E-06     210.176E-06
             605            1172     207.574E-06     213.759E-06
             606            1172     207.574E-06     213.759E-06
             590            1172     207.574E-06     213.759E-06
             589            1172     207.574E-06     213.759E-06
             590            1173     187.784E-06     198.252E-06
             606            1173     187.784E-06     198.252E-06
             591            1173     187.784E-06     198.252E-06
             607            1173     187.784E-06     198.252E-06
             592            1174     168.491E-06     175.314E-06
             608            1174     168.491E-06     175.314E-06
             607            1174     168.491E-06     175.314E-06
             591            1174     168.491E-06     175.314E-06
             610            1175     172.436E-06     165.493E-06
             594            1175     172.436E-06     165.493E-06
             609            1175     172.436E-06     165.493E-06
             593            1175     172.436E-06     165.493E-06
             594            1176     168.004E-06     169.141E-06
             611            1176     168.004E-06     169.141E-06
             595            1176     168.004E-06     169.141E-06
             610            1176     168.004E-06     169.141E-06
             596            1177     169.272E-06     169.302E-06
             595            1177     169.272E-06     169.302E-06
             611            1177     169.272E-06     169.302E-06
             612            1177     169.272E-06     169.302E-06
             613            1178     171.672E-06     170.399E-06
             596            1178     171.672E-06     170.399E-06
             612            1178     171.672E-06     170.399E-06
             597            1178     171.672E-06     170.399E-06
             597            1179     174.498E-06     172.363E-06
             613            1179     174.498E-06     172.363E-06
             614            1179     174.498E-06     172.363E-06
             598            1179     174.498E-06     172.363E-06
             615            1180     177.988E-06     174.872E-06
             614            1180     177.988E-06     174.872E-06
             599            1180     177.988E-06     174.872E-06
             598            1180     177.988E-06     174.872E-06
             616            1181     181.884E-06     178.200E-06
             615            1181     181.884E-06     178.200E-06
             600            1181     181.884E-06     178.200E-06
             599            1181     181.884E-06     178.200E-06
             616            1182     186.344E-06     182.044E-06
             601            1182     186.344E-06     182.044E-06
             617            1182     186.344E-06     182.044E-06
             600            1182     186.344E-06     182.044E-06
             601            1183     191.427E-06     186.629E-06
             602            1183     191.427E-06     186.629E-06
             618            1183     191.427E-06     186.629E-06
             617            1183     191.427E-06     186.629E-06
             602            1184     197.008E-06     191.799E-06
             603            1184     197.008E-06     191.799E-06
             619            1184     197.008E-06     191.799E-06
             618            1184     197.008E-06     191.799E-06
             604            1185     202.797E-06     197.046E-06
             619            1185     202.797E-06     197.046E-06
             620            1185     202.797E-06     197.046E-06
             603            1185     202.797E-06     197.046E-06
             621            1186     206.623E-06     200.622E-06
             605            1186     206.623E-06     200.622E-06
             620            1186     206.623E-06     200.622E-06
             604            1186     206.623E-06     200.622E-06
             606            1187     201.961E-06     196.598E-06
             622            1187     201.961E-06     196.598E-06
             621            1187     201.961E-06     196.598E-06
             605            1187     201.961E-06     196.598E-06
             607            1188     166.913E-06     167.892E-06
             606            1188     166.913E-06     167.892E-06
             622            1188     166.913E-06     167.892E-06
             623            1188     166.913E-06     167.892E-06
             607            1189     114.029E-06     114.576E-06
             623            1189     114.029E-06     114.576E-06
             608            1189     114.029E-06     114.576E-06
             624            1189     114.029E-06     114.576E-06
             625            1190     168.836E-06     180.770E-06
             626            1190     168.836E-06     180.770E-06
             610            1190     168.836E-06     180.770E-06
             609            1190     168.836E-06     180.770E-06
             611            1191     172.747E-06     175.591E-06
             626            1191     172.747E-06     175.591E-06
             627            1191     172.747E-06     175.591E-06
             610            1191     172.747E-06     175.591E-06
             611            1192     177.536E-06     172.870E-06
             627            1192     177.536E-06     172.870E-06
             628            1192     177.536E-06     172.870E-06
             612            1192     177.536E-06     172.870E-06
             628            1193     180.893E-06     173.619E-06
             629            1193     180.893E-06     173.619E-06
             613            1193     180.893E-06     173.619E-06
             612            1193     180.893E-06     173.619E-06
             613            1194     183.920E-06     174.998E-06
             629            1194     183.920E-06     174.998E-06
             630            1194     183.920E-06     174.998E-06
             614            1194     183.920E-06     174.998E-06
             614            1195     187.382E-06     176.766E-06
             615            1195     187.382E-06     176.766E-06
             630            1195     187.382E-06     176.766E-06
             631            1195     187.382E-06     176.766E-06
             632            1196     190.964E-06     179.029E-06
             616            1196     190.964E-06     179.029E-06
             615            1196     190.964E-06     179.029E-06
             631            1196     190.964E-06     179.029E-06
             633            1197     194.708E-06     181.559E-06
             616            1197     194.708E-06     181.559E-06
             617            1197     194.708E-06     181.559E-06
             632            1197     194.708E-06     181.559E-06
             633            1198     198.428E-06     184.120E-06
             618            1198     198.428E-06     184.120E-06
             617            1198     198.428E-06     184.120E-06
             634            1198     198.428E-06     184.120E-06
             618            1199     201.473E-06     186.332E-06
             634            1199     201.473E-06     186.332E-06
             619            1199     201.473E-06     186.332E-06
             635            1199     201.473E-06     186.332E-06
             619            1200     203.216E-06     186.778E-06
             620            1200     203.216E-06     186.778E-06
             636            1200     203.216E-06     186.778E-06
             635            1200     203.216E-06     186.778E-06
             637            1201     200.160E-06     183.163E-06
             621            1201     200.160E-06     183.163E-06
             620            1201     200.160E-06     183.163E-06
             636            1201     200.160E-06     183.163E-06
             638            1202     186.902E-06     168.470E-06
             637            1202     186.902E-06     168.470E-06
             622            1202     186.902E-06     168.470E-06
             621            1202     186.902E-06     168.470E-06
             639            1203     153.937E-06     134.089E-06
             622            1203     153.937E-06     134.089E-06
             638            1203     153.937E-06     134.089E-06
             623            1203     153.937E-06     134.089E-06
             624            1204     88.0132E-06     94.1880E-06
             623            1204     88.0132E-06     94.1880E-06
             639            1204     88.0132E-06     94.1880E-06
             640            1204     88.0132E-06     94.1880E-06
            1090            1511     54.5966E-03     52.0013E-03
            1091            1511     54.5966E-03     52.0013E-03
            1075            1511     54.5966E-03     52.0013E-03
            1074            1511     54.5966E-03     52.0013E-03
            1092            1512     69.3671E-03     55.7180E-03
            1091            1512     69.3671E-03     55.7180E-03
            1075            1512     69.3671E-03     55.7180E-03
            1076            1512     69.3671E-03     55.7180E-03
            1076            1513     79.2896E-03     67.6003E-03
            1092            1513     79.2896E-03     67.6003E-03
            1093            1513     79.2896E-03     67.6003E-03
            1077            1513     79.2896E-03     67.6003E-03
            1078            1514     84.0402E-03     73.6212E-03
            1094            1514     84.0402E-03     73.6212E-03
            1077            1514     84.0402E-03     73.6212E-03
            1093            1514     84.0402E-03     73.6212E-03
            1078            1515     84.1550E-03     74.7261E-03
            1094            1515     84.1550E-03     74.7261E-03
            1095            1515     84.1550E-03     74.7261E-03
            1079            1515     84.1550E-03     74.7261E-03
            1080            1516     82.4554E-03     73.7304E-03
            1096            1516     82.4554E-03     73.7304E-03
            1095            1516     82.4554E-03     73.7304E-03
            1079            1516     82.4554E-03     73.7304E-03
            1096            1517     79.3482E-03     71.2751E-03
            1081            1517     79.3482E-03     71.2751E-03
            1097            1517     79.3482E-03     71.2751E-03
            1080            1517     79.3482E-03     71.2751E-03
            1098            1518     75.7274E-03     68.2639E-03
            1082            1518     75.7274E-03     68.2639E-03
            1081            1518     75.7274E-03     68.2639E-03
            1097            1518     75.7274E-03     68.2639E-03
            1098            1519     71.8692E-03     65.1002E-03
            1099            1519     71.8692E-03     65.1002E-03
            1083            1519     71.8692E-03     65.1002E-03
            1082            1519     71.8692E-03     65.1002E-03
            1084            1520     68.0533E-03     61.9959E-03
            1083            1520     68.0533E-03     61.9959E-03
            1099            1520     68.0533E-03     61.9959E-03
            1100            1520     68.0533E-03     61.9959E-03
            1084            1521     64.3752E-03     59.1516E-03
            1085            1521     64.3752E-03     59.1516E-03
            1101            1521     64.3752E-03     59.1516E-03
            1100            1521     64.3752E-03     59.1516E-03
            1101            1522     61.0063E-03     56.8208E-03
            1086            1522     61.0063E-03     56.8208E-03
            1102            1522     61.0063E-03     56.8208E-03
            1085            1522     61.0063E-03     56.8208E-03
            1086            1523     57.8985E-03     54.8406E-03
            1103            1523     57.8985E-03     54.8406E-03
            1087            1523     57.8985E-03     54.8406E-03
            1102            1523     57.8985E-03     54.8406E-03
            1087            1524     55.0365E-03     54.2501E-03
            1104            1524     55.0365E-03     54.2501E-03
            1103            1524     55.0365E-03     54.2501E-03
            1088            1524     55.0365E-03     54.2501E-03
            1089            1525     50.4020E-03     56.0063E-03
            1105            1525     50.4020E-03     56.0063E-03
            1104            1525     50.4020E-03     56.0063E-03
            1088            1525     50.4020E-03     56.0063E-03
            1091            1526     99.4072E-03     95.5144E-03
            1107            1526     99.4072E-03     95.5144E-03
            1106            1526     99.4072E-03     95.5144E-03
            1090            1526     99.4072E-03     95.5144E-03
            1091            1527     126.249E-03     108.103E-03
            1092            1527     126.249E-03     108.103E-03
            1108            1527     126.249E-03     108.103E-03
            1107            1527     126.249E-03     108.103E-03
            1092            1528     150.386E-03     132.027E-03
            1108            1528     150.386E-03     132.027E-03
            1109            1528     150.386E-03     132.027E-03
            1093            1528     150.386E-03     132.027E-03
            1110            1529     157.146E-03     140.328E-03
            1093            1529     157.146E-03     140.328E-03
            1109            1529     157.146E-03     140.328E-03
            1094            1529     157.146E-03     140.328E-03
            1110            1530     156.507E-03     140.814E-03
            1111            1530     156.507E-03     140.814E-03
            1095            1530     156.507E-03     140.814E-03
            1094            1530     156.507E-03     140.814E-03
            1111            1531     151.696E-03     136.933E-03
            1112            1531     151.696E-03     136.933E-03
            1095            1531     151.696E-03     136.933E-03
            1096            1531     151.696E-03     136.933E-03
            1096            1532     145.028E-03     131.312E-03
            1097            1532     145.028E-03     131.312E-03
            1113            1532     145.028E-03     131.312E-03
            1112            1532     145.028E-03     131.312E-03
            1097            1533     137.766E-03     124.947E-03
            1114            1533     137.766E-03     124.947E-03
            1098            1533     137.766E-03     124.947E-03
            1113            1533     137.766E-03     124.947E-03
            1114            1534     130.339E-03     118.578E-03
            1098            1534     130.339E-03     118.578E-03
            1099            1534     130.339E-03     118.578E-03
            1115            1534     130.339E-03     118.578E-03
            1116            1535     123.202E-03     112.571E-03
            1115            1535     123.202E-03     112.571E-03
            1099            1535     123.202E-03     112.571E-03
            1100            1535     123.202E-03     112.571E-03
            1116            1536     116.444E-03     107.160E-03
            1117            1536     116.444E-03     107.160E-03
            1100            1536     116.444E-03     107.160E-03
            1101            1536     116.444E-03     107.160E-03
            1117            1537     110.271E-03     102.721E-03
            1101            1537     110.271E-03     102.721E-03
            1118            1537     110.271E-03     102.721E-03
            1102            1537     110.271E-03     102.721E-03
            1119            1538     104.535E-03     99.5157E-03
            1102            1538     104.535E-03     99.5157E-03
            1118            1538     104.535E-03     99.5157E-03
            1103            1538     104.535E-03     99.5157E-03
            1103            1539     98.7486E-03     98.9863E-03
            1120            1539     98.7486E-03     98.9863E-03
            1104            1539     98.7486E-03     98.9863E-03
            1119            1539     98.7486E-03     98.9863E-03
            1105            1540     93.9349E-03     101.809E-03
            1121            1540     93.9349E-03     101.809E-03
            1120            1540     93.9349E-03     101.809E-03
            1104            1540     93.9349E-03     101.809E-03
            1123            1541     130.364E-03     128.868E-03
            1122            1541     130.364E-03     128.868E-03
            1107            1541     130.364E-03     128.868E-03
            1106            1541     130.364E-03     128.868E-03
            1108            1542     141.097E-03     138.213E-03
            1123            1542     141.097E-03     138.213E-03
            1107            1542     141.097E-03     138.213E-03
            1124            1542     141.097E-03     138.213E-03
            1109            1543     162.782E-03     156.056E-03
            1124            1543     162.782E-03     156.056E-03
            1125            1543     162.782E-03     156.056E-03
            1108            1543     162.782E-03     156.056E-03
            1125            1544     165.446E-03     157.582E-03
            1110            1544     165.446E-03     157.582E-03
            1126            1544     165.446E-03     157.582E-03
            1109            1544     165.446E-03     157.582E-03
            1111            1545     160.336E-03     152.258E-03
            1126            1545     160.336E-03     152.258E-03
            1127            1545     160.336E-03     152.258E-03
            1110            1545     160.336E-03     152.258E-03
            1112            1546     151.636E-03     143.941E-03
            1128            1546     151.636E-03     143.941E-03
            1111            1546     151.636E-03     143.941E-03
            1127            1546     151.636E-03     143.941E-03
            1129            1547     142.455E-03     135.107E-03
            1112            1547     142.455E-03     135.107E-03
            1113            1547     142.455E-03     135.107E-03
            1128            1547     142.455E-03     135.107E-03
            1130            1548     133.266E-03     126.355E-03
            1113            1548     133.266E-03     126.355E-03
            1129            1548     133.266E-03     126.355E-03
            1114            1548     133.266E-03     126.355E-03
            1114            1549     124.619E-03     118.184E-03
            1130            1549     124.619E-03     118.184E-03
            1115            1549     124.619E-03     118.184E-03
            1131            1549     124.619E-03     118.184E-03
            1115            1550     116.572E-03     110.706E-03
            1116            1550     116.572E-03     110.706E-03
            1132            1550     116.572E-03     110.706E-03
            1131            1550     116.572E-03     110.706E-03
            1117            1551     109.232E-03     104.177E-03
            1132            1551     109.232E-03     104.177E-03
            1133            1551     109.232E-03     104.177E-03
            1116            1551     109.232E-03     104.177E-03
            1118            1552     102.760E-03     98.6392E-03
            1117            1552     102.760E-03     98.6392E-03
            1134            1552     102.760E-03     98.6392E-03
            1133            1552     102.760E-03     98.6392E-03
            1118            1553     96.7537E-03     94.8554E-03
            1119            1553     96.7537E-03     94.8554E-03
            1135            1553     96.7537E-03     94.8554E-03
            1134            1553     96.7537E-03     94.8554E-03
            1119            1554     92.2629E-03     93.1453E-03
            1120            1554     92.2629E-03     93.1453E-03
            1135            1554     92.2629E-03     93.1453E-03
            1136            1554     92.2629E-03     93.1453E-03
            1120            1555     92.1426E-03     90.0590E-03
            1136            1555     92.1426E-03     90.0590E-03
            1121            1555     92.1426E-03     90.0590E-03
            1137            1555     92.1426E-03     90.0590E-03
            1123            1556     174.686E-03     175.012E-03
            1122            1556     174.686E-03     175.012E-03
            1139            1556     174.686E-03     175.012E-03
            1138            1556     174.686E-03     175.012E-03
            1139            1557     163.279E-03     168.394E-03
            1140            1557     163.279E-03     168.394E-03
            1123            1557     163.279E-03     168.394E-03
            1124            1557     163.279E-03     168.394E-03
            1124            1558     170.573E-03     173.065E-03
            1125            1558     170.573E-03     173.065E-03
            1140            1558     170.573E-03     173.065E-03
            1141            1558     170.573E-03     173.065E-03
            1141            1559     168.909E-03     168.972E-03
            1142            1559     168.909E-03     168.972E-03
            1125            1559     168.909E-03     168.972E-03
            1126            1559     168.909E-03     168.972E-03
            1142            1560     159.505E-03     159.275E-03
            1143            1560     159.505E-03     159.275E-03
            1126            1560     159.505E-03     159.275E-03
            1127            1560     159.505E-03     159.275E-03
            1127            1561     149.156E-03     148.613E-03
            1143            1561     149.156E-03     148.613E-03
            1144            1561     149.156E-03     148.613E-03
            1128            1561     149.156E-03     148.613E-03
            1144            1562     138.305E-03     137.697E-03
            1129            1562     138.305E-03     137.697E-03
            1145            1562     138.305E-03     137.697E-03
            1128            1562     138.305E-03     137.697E-03
            1130            1563     128.086E-03     127.475E-03
            1146            1563     128.086E-03     127.475E-03
            1145            1563     128.086E-03     127.475E-03
            1129            1563     128.086E-03     127.475E-03
            1130            1564     118.568E-03     117.971E-03
            1147            1564     118.568E-03     117.971E-03
            1146            1564     118.568E-03     117.971E-03
            1131            1564     118.568E-03     117.971E-03
            1147            1565     109.865E-03     109.351E-03
            1132            1565     109.865E-03     109.351E-03
            1148            1565     109.865E-03     109.351E-03
            1131            1565     109.865E-03     109.351E-03
            1149            1566     102.091E-03     101.707E-03
            1132            1566     102.091E-03     101.707E-03
            1133            1566     102.091E-03     101.707E-03
            1148            1566     102.091E-03     101.707E-03
            1149            1567     95.3163E-03     95.2009E-03
            1134            1567     95.3163E-03     95.2009E-03
            1150            1567     95.3163E-03     95.2009E-03
            1133            1567     95.3163E-03     95.2009E-03
            1135            1568     90.1578E-03     89.8524E-03
            1150            1568     90.1578E-03     89.8524E-03
            1134            1568     90.1578E-03     89.8524E-03
            1151            1568     90.1578E-03     89.8524E-03
            1151            1569     87.5759E-03     84.5291E-03
            1152            1569     87.5759E-03     84.5291E-03
            1136            1569     87.5759E-03     84.5291E-03
            1135            1569     87.5759E-03     84.5291E-03
            1153            1570     86.6765E-03     79.2520E-03
            1152            1570     86.6765E-03     79.2520E-03
            1137            1570     86.6765E-03     79.2520E-03
            1136            1570     86.6765E-03     79.2520E-03
            1139            1571     218.567E-03     224.094E-03
            1154            1571     218.567E-03     224.094E-03
            1155            1571     218.567E-03     224.094E-03
            1138            1571     218.567E-03     224.094E-03
            1140            1572     191.643E-03     197.551E-03
            1155            1572     191.643E-03     197.551E-03
            1156            1572     191.643E-03     197.551E-03
            1139            1572     191.643E-03     197.551E-03
            1141            1573     177.109E-03     184.922E-03
            1156            1573     177.109E-03     184.922E-03
            1140            1573     177.109E-03     184.922E-03
            1157            1573     177.109E-03     184.922E-03
            1158            1574     165.437E-03     173.252E-03
            1142            1574     165.437E-03     173.252E-03
            1157            1574     165.437E-03     173.252E-03
            1141            1574     165.437E-03     173.252E-03
            1142            1575     154.589E-03     161.675E-03
            1158            1575     154.589E-03     161.675E-03
            1159            1575     154.589E-03     161.675E-03
            1143            1575     154.589E-03     161.675E-03
            1143            1576     143.147E-03     149.725E-03
            1144            1576     143.147E-03     149.725E-03
            1160            1576     143.147E-03     149.725E-03
            1159            1576     143.147E-03     149.725E-03
            1160            1577     132.082E-03     138.350E-03
            1161            1577     132.082E-03     138.350E-03
            1145            1577     132.082E-03     138.350E-03
            1144            1577     132.082E-03     138.350E-03
            1162            1578     121.581E-03     127.521E-03
            1161            1578     121.581E-03     127.521E-03
            1145            1578     121.581E-03     127.521E-03
            1146            1578     121.581E-03     127.521E-03
            1163            1579     111.748E-03     117.381E-03
            1162            1579     111.748E-03     117.381E-03
            1147            1579     111.748E-03     117.381E-03
            1146            1579     111.748E-03     117.381E-03
            1147            1580     102.760E-03     108.020E-03
            1148            1580     102.760E-03     108.020E-03
            1163            1580     102.760E-03     108.020E-03
            1164            1580     102.760E-03     108.020E-03
            1148            1581     94.7101E-03     99.4605E-03
            1165            1581     94.7101E-03     99.4605E-03
            1164            1581     94.7101E-03     99.4605E-03
            1149            1581     94.7101E-03     99.4605E-03
            1165            1582     87.8522E-03     91.9922E-03
            1149            1582     87.8522E-03     91.9922E-03
            1150            1582     87.8522E-03     91.9922E-03
            1166            1582     87.8522E-03     91.9922E-03
            1167            1583     83.0832E-03     85.0881E-03
            1151            1583     83.0832E-03     85.0881E-03
            1166            1583     83.0832E-03     85.0881E-03
            1150            1583     83.0832E-03     85.0881E-03
            1151            1584     80.7727E-03     77.9572E-03
            1152            1584     80.7727E-03     77.9572E-03
            1168            1584     80.7727E-03     77.9572E-03
            1167            1584     80.7727E-03     77.9572E-03
            1168            1585     79.8904E-03     72.5412E-03
            1153            1585     79.8904E-03     72.5412E-03
            1152            1585     79.8904E-03     72.5412E-03
            1169            1585     79.8904E-03     72.5412E-03
            1154            1586     265.579E-03     267.099E-03
            1170            1586     265.579E-03     267.099E-03
            1171            1586     265.579E-03     267.099E-03
            1155            1586     265.579E-03     267.099E-03
            1156            1587     210.718E-03     220.450E-03
            1155            1587     210.718E-03     220.450E-03
            1171            1587     210.718E-03     220.450E-03
            1172            1587     210.718E-03     220.450E-03
            1156            1588     175.971E-03     190.217E-03
            1172            1588     175.971E-03     190.217E-03
            1173            1588     175.971E-03     190.217E-03
            1157            1588     175.971E-03     190.217E-03
            1157            1589     158.577E-03     173.444E-03
            1173            1589     158.577E-03     173.444E-03
            1174            1589     158.577E-03     173.444E-03
            1158            1589     158.577E-03     173.444E-03
            1175            1590     146.187E-03     160.351E-03
            1158            1590     146.187E-03     160.351E-03
            1174            1590     146.187E-03     160.351E-03
            1159            1590     146.187E-03     160.351E-03
            1160            1591     134.770E-03     148.494E-03
            1175            1591     134.770E-03     148.494E-03
            1159            1591     134.770E-03     148.494E-03
            1176            1591     134.770E-03     148.494E-03
            1161            1592     124.141E-03     137.388E-03
            1160            1592     124.141E-03     137.388E-03
            1176            1592     124.141E-03     137.388E-03
            1177            1592     124.141E-03     137.388E-03
            1162            1593     113.852E-03     126.635E-03
            1177            1593     113.852E-03     126.635E-03
            1178            1593     113.852E-03     126.635E-03
            1161            1593     113.852E-03     126.635E-03
            1178            1594     104.137E-03     116.361E-03
            1179            1594     104.137E-03     116.361E-03
            1163            1594     104.137E-03     116.361E-03
            1162            1594     104.137E-03     116.361E-03
            1163            1595     95.0627E-03     106.519E-03
            1180            1595     95.0627E-03     106.519E-03
            1164            1595     95.0627E-03     106.519E-03
            1179            1595     95.0627E-03     106.519E-03
            1181            1596     86.9160E-03     97.3720E-03
            1164            1596     86.9160E-03     97.3720E-03
            1165            1596     86.9160E-03     97.3720E-03
            1180            1596     86.9160E-03     97.3720E-03
            1181            1597     80.0760E-03     88.8317E-03
            1166            1597     80.0760E-03     88.8317E-03
            1182            1597     80.0760E-03     88.8317E-03
            1165            1597     80.0760E-03     88.8317E-03
            1167            1598     74.6093E-03     81.2547E-03
            1183            1598     74.6093E-03     81.2547E-03
            1166            1598     74.6093E-03     81.2547E-03
            1182            1598     74.6093E-03     81.2547E-03
            1167            1599     71.4981E-03     74.7053E-03
            1168            1599     71.4981E-03     74.7053E-03
            1184            1599     71.4981E-03     74.7053E-03
            1183            1599     71.4981E-03     74.7053E-03
            1168            1600     71.8359E-03     67.9073E-03
            1169            1600     71.8359E-03     67.9073E-03
            1185            1600     71.8359E-03     67.9073E-03
            1184            1600     71.8359E-03     67.9073E-03
            1186            1601     290.915E-03     309.702E-03
            1170            1601     290.915E-03     309.702E-03
            1171            1601     290.915E-03     309.702E-03
            1187            1601     290.915E-03     309.702E-03
            1172            1602     208.113E-03     230.401E-03
            1171            1602     208.113E-03     230.401E-03
            1187            1602     208.113E-03     230.401E-03
            1188            1602     208.113E-03     230.401E-03
            1172            1603     170.229E-03     192.237E-03
            1173            1603     170.229E-03     192.237E-03
            1189            1603     170.229E-03     192.237E-03
            1188            1603     170.229E-03     192.237E-03
            1189            1604     150.829E-03     172.388E-03
            1174            1604     150.829E-03     172.388E-03
            1173            1604     150.829E-03     172.388E-03
            1190            1604     150.829E-03     172.388E-03
            1174            1605     136.828E-03     158.203E-03
            1191            1605     136.828E-03     158.203E-03
            1190            1605     136.828E-03     158.203E-03
            1175            1605     136.828E-03     158.203E-03
            1192            1606     125.859E-03     146.830E-03
            1191            1606     125.859E-03     146.830E-03
            1175            1606     125.859E-03     146.830E-03
            1176            1606     125.859E-03     146.830E-03
            1192            1607     115.424E-03     135.953E-03
            1193            1607     115.424E-03     135.953E-03
            1176            1607     115.424E-03     135.953E-03
            1177            1607     115.424E-03     135.953E-03
            1177            1608     105.481E-03     125.496E-03
            1194            1608     105.481E-03     125.496E-03
            1193            1608     105.481E-03     125.496E-03
            1178            1608     105.481E-03     125.496E-03
            1194            1609     95.8733E-03     115.119E-03
            1179            1609     95.8733E-03     115.119E-03
            1195            1609     95.8733E-03     115.119E-03
            1178            1609     95.8733E-03     115.119E-03
            1179            1610     86.8253E-03     105.063E-03
            1196            1610     86.8253E-03     105.063E-03
            1195            1610     86.8253E-03     105.063E-03
            1180            1610     86.8253E-03     105.063E-03
            1181            1611     78.6220E-03     95.3321E-03
            1196            1611     78.6220E-03     95.3321E-03
            1197            1611     78.6220E-03     95.3321E-03
            1180            1611     78.6220E-03     95.3321E-03
            1197            1612     71.6032E-03     86.1425E-03
            1182            1612     71.6032E-03     86.1425E-03
            1198            1612     71.6032E-03     86.1425E-03
            1181            1612     71.6032E-03     86.1425E-03
            1182            1613     65.9250E-03     77.8138E-03
            1183            1613     65.9250E-03     77.8138E-03
            1199            1613     65.9250E-03     77.8138E-03
            1198            1613     65.9250E-03     77.8138E-03
            1183            1614     61.6793E-03     71.1830E-03
            1184            1614     61.6793E-03     71.1830E-03
            1200            1614     61.6793E-03     71.1830E-03
            1199            1614     61.6793E-03     71.1830E-03
            1185            1615     59.6579E-03     66.5587E-03
            1184            1615     59.6579E-03     66.5587E-03
            1201            1615     59.6579E-03     66.5587E-03
            1200            1615     59.6579E-03     66.5587E-03
            1186            1616     311.303E-03     318.129E-03
            1202            1616     311.303E-03     318.129E-03
            1203            1616     311.303E-03     318.129E-03
            1187            1616     311.303E-03     318.129E-03
            1203            1617     283.948E-03     285.019E-03
            1204            1617     283.948E-03     285.019E-03
            1187            1617     283.948E-03     285.019E-03
            1188            1617     283.948E-03     285.019E-03
            1189            1618     267.006E-03     267.916E-03
            1188            1618     267.006E-03     267.916E-03
            1204            1618     267.006E-03     267.916E-03
            1205            1618     267.006E-03     267.916E-03
            1190            1619     250.287E-03     252.351E-03
            1206            1619     250.287E-03     252.351E-03
            1189            1619     250.287E-03     252.351E-03
            1205            1619     250.287E-03     252.351E-03
            1191            1620     234.084E-03     236.714E-03
            1207            1620     234.084E-03     236.714E-03
            1190            1620     234.084E-03     236.714E-03
            1206            1620     234.084E-03     236.714E-03
            1207            1621     217.455E-03     220.429E-03
            1191            1621     217.455E-03     220.429E-03
            1208            1621     217.455E-03     220.429E-03
            1192            1621     217.455E-03     220.429E-03
            1192            1622     200.515E-03     203.609E-03
            1208            1622     200.515E-03     203.609E-03
            1209            1622     200.515E-03     203.609E-03
            1193            1622     200.515E-03     203.609E-03
            1209            1623     183.567E-03     186.716E-03
            1210            1623     183.567E-03     186.716E-03
            1194            1623     183.567E-03     186.716E-03
            1193            1623     183.567E-03     186.716E-03
            1210            1624     166.693E-03     169.708E-03
            1195            1624     166.693E-03     169.708E-03
            1211            1624     166.693E-03     169.708E-03
            1194            1624     166.693E-03     169.708E-03
            1196            1625     150.331E-03     153.247E-03
            1212            1625     150.331E-03     153.247E-03
            1211            1625     150.331E-03     153.247E-03
            1195            1625     150.331E-03     153.247E-03
            1212            1626     134.706E-03     137.254E-03
            1213            1626     134.706E-03     137.254E-03
            1197            1626     134.706E-03     137.254E-03
            1196            1626     134.706E-03     137.254E-03
            1198            1627     120.385E-03     122.694E-03
            1213            1627     120.385E-03     122.694E-03
            1197            1627     120.385E-03     122.694E-03
            1214            1627     120.385E-03     122.694E-03
            1214            1628     107.725E-03     109.389E-03
            1215            1628     107.725E-03     109.389E-03
            1198            1628     107.725E-03     109.389E-03
            1199            1628     107.725E-03     109.389E-03
            1215            1629     97.1337E-03     99.9679E-03
            1199            1629     97.1337E-03     99.9679E-03
            1216            1629     97.1337E-03     99.9679E-03
            1200            1629     97.1337E-03     99.9679E-03
            1200            1630     85.6541E-03     96.7813E-03
            1216            1630     85.6541E-03     96.7813E-03
            1217            1630     85.6541E-03     96.7813E-03
            1201            1630     85.6541E-03     96.7813E-03
            1203            1631     353.028E-03     339.926E-03
            1218            1631     353.028E-03     339.926E-03
            1202            1631     353.028E-03     339.926E-03
            1219            1631     353.028E-03     339.926E-03
            1219            1632     377.417E-03     361.679E-03
            1203            1632     377.417E-03     361.679E-03
            1220            1632     377.417E-03     361.679E-03
            1204            1632     377.417E-03     361.679E-03
            1205            1633     375.483E-03     360.234E-03
            1204            1633     375.483E-03     360.234E-03
            1220            1633     375.483E-03     360.234E-03
            1221            1633     375.483E-03     360.234E-03
            1221            1634     359.605E-03     344.885E-03
            1222            1634     359.605E-03     344.885E-03
            1205            1634     359.605E-03     344.885E-03
            1206            1634     359.605E-03     344.885E-03
            1223            1635     337.479E-03     323.345E-03
            1222            1635     337.479E-03     323.345E-03
            1207            1635     337.479E-03     323.345E-03
            1206            1635     337.479E-03     323.345E-03
            1223            1636     312.693E-03     299.354E-03
            1208            1636     312.693E-03     299.354E-03
            1224            1636     312.693E-03     299.354E-03
            1207            1636     312.693E-03     299.354E-03
            1224            1637     287.479E-03     274.411E-03
            1209            1637     287.479E-03     274.411E-03
            1225            1637     287.479E-03     274.411E-03
            1208            1637     287.479E-03     274.411E-03
            1209            1638     261.968E-03     249.376E-03
            1225            1638     261.968E-03     249.376E-03
            1210            1638     261.968E-03     249.376E-03
            1226            1638     261.968E-03     249.376E-03
            1227            1639     236.835E-03     224.605E-03
            1226            1639     236.835E-03     224.605E-03
            1210            1639     236.835E-03     224.605E-03
            1211            1639     236.835E-03     224.605E-03
            1211            1640     212.176E-03     200.499E-03
            1212            1640     212.176E-03     200.499E-03
            1228            1640     212.176E-03     200.499E-03
            1227            1640     212.176E-03     200.499E-03
            1229            1641     188.407E-03     177.488E-03
            1228            1641     188.407E-03     177.488E-03
            1212            1641     188.407E-03     177.488E-03
            1213            1641     188.407E-03     177.488E-03
            1213            1642     166.058E-03     156.264E-03
            1230            1642     166.058E-03     156.264E-03
            1214            1642     166.058E-03     156.264E-03
            1229            1642     166.058E-03     156.264E-03
            1230            1643     145.452E-03     137.907E-03
            1214            1643     145.452E-03     137.907E-03
            1215            1643     145.452E-03     137.907E-03
            1231            1643     145.452E-03     137.907E-03
            1231            1644     127.054E-03     125.315E-03
            1232            1644     127.054E-03     125.315E-03
            1215            1644     127.054E-03     125.315E-03
            1216            1644     127.054E-03     125.315E-03
            1232            1645     112.889E-03     121.642E-03
            1233            1645     112.889E-03     121.642E-03
            1216            1645     112.889E-03     121.642E-03
            1217            1645     112.889E-03     121.642E-03
            1219            1646     402.273E-03     407.318E-03
            1235            1646     402.273E-03     407.318E-03
            1218            1646     402.273E-03     407.318E-03
            1234            1646     402.273E-03     407.318E-03
            1236            1647     398.976E-03     403.733E-03
            1220            1647     398.976E-03     403.733E-03
            1219            1647     398.976E-03     403.733E-03
            1235            1647     398.976E-03     403.733E-03
            1220            1648     390.515E-03     389.860E-03
            1236            1648     390.515E-03     389.860E-03
            1237            1648     390.515E-03     389.860E-03
            1221            1648     390.515E-03     389.860E-03
            1221            1649     366.439E-03     364.154E-03
            1222            1649     366.439E-03     364.154E-03
            1237            1649     366.439E-03     364.154E-03
            1238            1649     366.439E-03     364.154E-03
            1223            1650     338.231E-03     335.770E-03
            1222            1650     338.231E-03     335.770E-03
            1239            1650     338.231E-03     335.770E-03
            1238            1650     338.231E-03     335.770E-03
            1240            1651     309.923E-03     307.214E-03
            1239            1651     309.923E-03     307.214E-03
            1223            1651     309.923E-03     307.214E-03
            1224            1651     309.923E-03     307.214E-03
            1225            1652     281.636E-03     278.982E-03
            1240            1652     281.636E-03     278.982E-03
            1241            1652     281.636E-03     278.982E-03
            1224            1652     281.636E-03     278.982E-03
            1241            1653     254.028E-03     251.347E-03
            1242            1653     254.028E-03     251.347E-03
            1225            1653     254.028E-03     251.347E-03
            1226            1653     254.028E-03     251.347E-03
            1226            1654     226.957E-03     224.361E-03
            1243            1654     226.957E-03     224.361E-03
            1242            1654     226.957E-03     224.361E-03
            1227            1654     226.957E-03     224.361E-03
            1228            1655     200.700E-03     198.087E-03
            1244            1655     200.700E-03     198.087E-03
            1227            1655     200.700E-03     198.087E-03
            1243            1655     200.700E-03     198.087E-03
            1245            1656     175.323E-03     172.912E-03
            1228            1656     175.323E-03     172.912E-03
            1244            1656     175.323E-03     172.912E-03
            1229            1656     175.323E-03     172.912E-03
            1246            1657     151.372E-03     149.317E-03
            1245            1657     151.372E-03     149.317E-03
            1229            1657     151.372E-03     149.317E-03
            1230            1657     151.372E-03     149.317E-03
            1247            1658     129.156E-03     128.642E-03
            1230            1658     129.156E-03     128.642E-03
            1231            1658     129.156E-03     128.642E-03
            1246            1658     129.156E-03     128.642E-03
            1231            1659     110.254E-03     113.443E-03
            1247            1659     110.254E-03     113.443E-03
            1248            1659     110.254E-03     113.443E-03
            1232            1659     110.254E-03     113.443E-03
            1249            1660     100.648E-03     101.262E-03
            1248            1660     100.648E-03     101.262E-03
            1233            1660     100.648E-03     101.262E-03
            1232            1660     100.648E-03     101.262E-03
            1235            1661     453.179E-03     465.027E-03
            1251            1661     453.179E-03     465.027E-03
            1234            1661     453.179E-03     465.027E-03
            1250            1661     453.179E-03     465.027E-03
            1236            1662     424.335E-03     436.194E-03
            1252            1662     424.335E-03     436.194E-03
            1235            1662     424.335E-03     436.194E-03
            1251            1662     424.335E-03     436.194E-03
            1236            1663     395.286E-03     406.219E-03
            1252            1663     395.286E-03     406.219E-03
            1253            1663     395.286E-03     406.219E-03
            1237            1663     395.286E-03     406.219E-03
            1254            1664     363.779E-03     373.634E-03
            1237            1664     363.779E-03     373.634E-03
            1253            1664     363.779E-03     373.634E-03
            1238            1664     363.779E-03     373.634E-03
            1255            1665     333.489E-03     342.304E-03
            1254            1665     333.489E-03     342.304E-03
            1238            1665     333.489E-03     342.304E-03
            1239            1665     333.489E-03     342.304E-03
            1256            1666     303.483E-03     311.670E-03
            1239            1666     303.483E-03     311.670E-03
            1240            1666     303.483E-03     311.670E-03
            1255            1666     303.483E-03     311.670E-03
            1240            1667     274.052E-03     282.012E-03
            1257            1667     274.052E-03     282.012E-03
            1256            1667     274.052E-03     282.012E-03
            1241            1667     274.052E-03     282.012E-03
            1258            1668     245.221E-03     253.010E-03
            1241            1668     245.221E-03     253.010E-03
            1257            1668     245.221E-03     253.010E-03
            1242            1668     245.221E-03     253.010E-03
            1258            1669     216.991E-03     224.610E-03
            1242            1669     216.991E-03     224.610E-03
            1259            1669     216.991E-03     224.610E-03
            1243            1669     216.991E-03     224.610E-03
            1243            1670     189.417E-03     196.870E-03
            1259            1670     189.417E-03     196.870E-03
            1260            1670     189.417E-03     196.870E-03
            1244            1670     189.417E-03     196.870E-03
            1244            1671     162.782E-03     169.934E-03
            1261            1671     162.782E-03     169.934E-03
            1245            1671     162.782E-03     169.934E-03
            1260            1671     162.782E-03     169.934E-03
            1245            1672     137.274E-03     144.307E-03
            1262            1672     137.274E-03     144.307E-03
            1246            1672     137.274E-03     144.307E-03
            1261            1672     137.274E-03     144.307E-03
            1262            1673     113.945E-03     121.014E-03
            1263            1673     113.945E-03     121.014E-03
            1247            1673     113.945E-03     121.014E-03
            1246            1673     113.945E-03     121.014E-03
            1247            1674     96.0000E-03     99.6289E-03
            1263            1674     96.0000E-03     99.6289E-03
            1264            1674     96.0000E-03     99.6289E-03
            1248            1674     96.0000E-03     99.6289E-03
            1264            1675     85.1215E-03     80.6196E-03
            1265            1675     85.1215E-03     80.6196E-03
            1248            1675     85.1215E-03     80.6196E-03
            1249            1675     85.1215E-03     80.6196E-03
            1266            1676     502.157E-03     508.475E-03
            1267            1676     502.157E-03     508.475E-03
            1251            1676     502.157E-03     508.475E-03
            1250            1676     502.157E-03     508.475E-03
            1268            1677     439.375E-03     455.712E-03
            1267            1677     439.375E-03     455.712E-03
            1252            1677     439.375E-03     455.712E-03
            1251            1677     439.375E-03     455.712E-03
            1269            1678     388.157E-03     409.048E-03
            1252            1678     388.157E-03     409.048E-03
            1253            1678     388.157E-03     409.048E-03
            1268            1678     388.157E-03     409.048E-03
            1269            1679     354.089E-03     374.364E-03
            1253            1679     354.089E-03     374.364E-03
            1254            1679     354.089E-03     374.364E-03
            1270            1679     354.089E-03     374.364E-03
            1254            1680     323.364E-03     342.613E-03
            1271            1680     323.364E-03     342.613E-03
            1255            1680     323.364E-03     342.613E-03
            1270            1680     323.364E-03     342.613E-03
            1256            1681     293.442E-03     312.423E-03
            1255            1681     293.442E-03     312.423E-03
            1271            1681     293.442E-03     312.423E-03
            1272            1681     293.442E-03     312.423E-03
            1256            1682     264.208E-03     282.896E-03
            1273            1682     264.208E-03     282.896E-03
            1257            1682     264.208E-03     282.896E-03
            1272            1682     264.208E-03     282.896E-03
            1274            1683     235.103E-03     253.712E-03
            1258            1683     235.103E-03     253.712E-03
            1273            1683     235.103E-03     253.712E-03
            1257            1683     235.103E-03     253.712E-03
            1258            1684     206.407E-03     224.845E-03
            1274            1684     206.407E-03     224.845E-03
            1275            1684     206.407E-03     224.845E-03
            1259            1684     206.407E-03     224.845E-03
            1260            1685     178.111E-03     196.301E-03
            1275            1685     178.111E-03     196.301E-03
            1276            1685     178.111E-03     196.301E-03
            1259            1685     178.111E-03     196.301E-03
            1260            1686     150.444E-03     168.249E-03
            1261            1686     150.444E-03     168.249E-03
            1276            1686     150.444E-03     168.249E-03
            1277            1686     150.444E-03     168.249E-03
            1261            1687     123.848E-03     140.969E-03
            1262            1687     123.848E-03     140.969E-03
            1278            1687     123.848E-03     140.969E-03
            1277            1687     123.848E-03     140.969E-03
            1279            1688     99.3847E-03     114.770E-03
            1262            1688     99.3847E-03     114.770E-03
            1263            1688     99.3847E-03     114.770E-03
            1278            1688     99.3847E-03     114.770E-03
            1263            1689     79.3556E-03     89.1646E-03
            1280            1689     79.3556E-03     89.1646E-03
            1264            1689     79.3556E-03     89.1646E-03
            1279            1689     79.3556E-03     89.1646E-03
            1264            1690     67.3577E-03     67.2377E-03
            1281            1690     67.3577E-03     67.2377E-03
            1265            1690     67.3577E-03     67.2377E-03
            1280            1690     67.3577E-03     67.2377E-03
            1283            1691     523.054E-03     544.376E-03
            1267            1691     523.054E-03     544.376E-03
            1266            1691     523.054E-03     544.376E-03
            1282            1691     523.054E-03     544.376E-03
            1283            1692     428.253E-03     455.806E-03
            1284            1692     428.253E-03     455.806E-03
            1268            1692     428.253E-03     455.806E-03
            1267            1692     428.253E-03     455.806E-03
            1284            1693     376.148E-03     404.475E-03
            1268            1693     376.148E-03     404.475E-03
            1285            1693     376.148E-03     404.475E-03
            1269            1693     376.148E-03     404.475E-03
            1269            1694     341.028E-03     369.919E-03
            1285            1694     341.028E-03     369.919E-03
            1286            1694     341.028E-03     369.919E-03
            1270            1694     341.028E-03     369.919E-03
            1286            1695     310.132E-03     339.530E-03
            1271            1695     310.132E-03     339.530E-03
            1270            1695     310.132E-03     339.530E-03
            1287            1695     310.132E-03     339.530E-03
            1272            1696     281.327E-03     310.885E-03
            1288            1696     281.327E-03     310.885E-03
            1271            1696     281.327E-03     310.885E-03
            1287            1696     281.327E-03     310.885E-03
            1288            1697     252.568E-03     282.276E-03
            1289            1697     252.568E-03     282.276E-03
            1272            1697     252.568E-03     282.276E-03
            1273            1697     252.568E-03     282.276E-03
            1274            1698     223.994E-03     253.712E-03
            1289            1698     223.994E-03     253.712E-03
            1290            1698     223.994E-03     253.712E-03
            1273            1698     223.994E-03     253.712E-03
            1290            1699     195.296E-03     224.999E-03
            1275            1699     195.296E-03     224.999E-03
            1274            1699     195.296E-03     224.999E-03
            1291            1699     195.296E-03     224.999E-03
            1275            1700     166.777E-03     196.353E-03
            1291            1700     166.777E-03     196.353E-03
            1292            1700     166.777E-03     196.353E-03
            1276            1700     166.777E-03     196.353E-03
            1277            1701     138.492E-03     167.781E-03
            1293            1701     138.492E-03     167.781E-03
            1292            1701     138.492E-03     167.781E-03
            1276            1701     138.492E-03     167.781E-03
            1294            1702     110.946E-03     139.440E-03
            1293            1702     110.946E-03     139.440E-03
            1277            1702     110.946E-03     139.440E-03
            1278            1702     110.946E-03     139.440E-03
            1278            1703     84.9716E-03     111.051E-03
            1279            1703     84.9716E-03     111.051E-03
            1294            1703     84.9716E-03     111.051E-03
            1295            1703     84.9716E-03     111.051E-03
            1296            1704     61.7561E-03     83.7877E-03
            1280            1704     61.7561E-03     83.7877E-03
            1295            1704     61.7561E-03     83.7877E-03
            1279            1704     61.7561E-03     83.7877E-03
            1281            1705     46.6708E-03     57.8937E-03
            1296            1705     46.6708E-03     57.8937E-03
            1280            1705     46.6708E-03     57.8937E-03
            1297            1705     46.6708E-03     57.8937E-03
            1283            1706     539.561E-03     549.098E-03
            1282            1706     539.561E-03     549.098E-03
            1298            1706     539.561E-03     549.098E-03
            1299            1706     539.561E-03     549.098E-03
            1283            1707     498.206E-03     500.810E-03
            1284            1707     498.206E-03     500.810E-03
            1300            1707     498.206E-03     500.810E-03
            1299            1707     498.206E-03     500.810E-03
            1301            1708     467.978E-03     472.792E-03
            1284            1708     467.978E-03     472.792E-03
            1285            1708     467.978E-03     472.792E-03
            1300            1708     467.978E-03     472.792E-03
            1302            1709     437.541E-03     445.336E-03
            1286            1709     437.541E-03     445.336E-03
            1285            1709     437.541E-03     445.336E-03
            1301            1709     437.541E-03     445.336E-03
            1286            1710     406.779E-03     416.329E-03
            1287            1710     406.779E-03     416.329E-03
            1303            1710     406.779E-03     416.329E-03
            1302            1710     406.779E-03     416.329E-03
            1303            1711     374.745E-03     385.739E-03
            1287            1711     374.745E-03     385.739E-03
            1304            1711     374.745E-03     385.739E-03
            1288            1711     374.745E-03     385.739E-03
            1305            1712     341.962E-03     353.490E-03
            1304            1712     341.962E-03     353.490E-03
            1289            1712     341.962E-03     353.490E-03
            1288            1712     341.962E-03     353.490E-03
            1306            1713     308.428E-03     320.482E-03
            1305            1713     308.428E-03     320.482E-03
            1290            1713     308.428E-03     320.482E-03
            1289            1713     308.428E-03     320.482E-03
            1290            1714     274.805E-03     287.123E-03
            1291            1714     274.805E-03     287.123E-03
            1307            1714     274.805E-03     287.123E-03
            1306            1714     274.805E-03     287.123E-03
            1291            1715     241.170E-03     253.827E-03
            1308            1715     241.170E-03     253.827E-03
            1307            1715     241.170E-03     253.827E-03
            1292            1715     241.170E-03     253.827E-03
            1309            1716     208.273E-03     221.078E-03
            1293            1716     208.273E-03     221.078E-03
            1292            1716     208.273E-03     221.078E-03
            1308            1716     208.273E-03     221.078E-03
            1309            1717     176.467E-03     189.314E-03
            1310            1717     176.467E-03     189.314E-03
            1294            1717     176.467E-03     189.314E-03
            1293            1717     176.467E-03     189.314E-03
            1295            1718     146.898E-03     159.217E-03
            1294            1718     146.898E-03     159.217E-03
            1310            1718     146.898E-03     159.217E-03
            1311            1718     146.898E-03     159.217E-03
            1312            1719     120.853E-03     132.886E-03
            1311            1719     120.853E-03     132.886E-03
            1295            1719     120.853E-03     132.886E-03
            1296            1719     120.853E-03     132.886E-03
            1312            1720     97.3738E-03     115.296E-03
            1296            1720     97.3738E-03     115.296E-03
            1313            1720     97.3738E-03     115.296E-03
            1297            1720     97.3738E-03     115.296E-03
            1314            1721     588.869E-03     575.960E-03
            1315            1721     588.869E-03     575.960E-03
            1299            1721     588.869E-03     575.960E-03
            1298            1721     588.869E-03     575.960E-03
            1316            1722     595.593E-03     583.549E-03
            1315            1722     595.593E-03     583.549E-03
            1300            1722     595.593E-03     583.549E-03
            1299            1722     595.593E-03     583.549E-03
            1317            1723     581.188E-03     568.563E-03
            1300            1723     581.188E-03     568.563E-03
            1301            1723     581.188E-03     568.563E-03
            1316            1723     581.188E-03     568.563E-03
            1317            1724     552.284E-03     541.348E-03
            1318            1724     552.284E-03     541.348E-03
            1301            1724     552.284E-03     541.348E-03
            1302            1724     552.284E-03     541.348E-03
            1318            1725     517.044E-03     507.385E-03
            1302            1725     517.044E-03     507.385E-03
            1303            1725     517.044E-03     507.385E-03
            1319            1725     517.044E-03     507.385E-03
            1320            1726     478.193E-03     469.395E-03
            1304            1726     478.193E-03     469.395E-03
            1303            1726     478.193E-03     469.395E-03
            1319            1726     478.193E-03     469.395E-03
            1304            1727     437.717E-03     429.784E-03
            1320            1727     437.717E-03     429.784E-03
            1321            1727     437.717E-03     429.784E-03
            1305            1727     437.717E-03     429.784E-03
            1306            1728     396.884E-03     389.298E-03
            1321            1728     396.884E-03     389.298E-03
            1322            1728     396.884E-03     389.298E-03
            1305            1728     396.884E-03     389.298E-03
            1307            1729     355.983E-03     348.848E-03
            1323            1729     355.983E-03     348.848E-03
            1306            1729     355.983E-03     348.848E-03
            1322            1729     355.983E-03     348.848E-03
            1308            1730     315.760E-03     308.901E-03
            1323            1730     315.760E-03     308.901E-03
            1324            1730     315.760E-03     308.901E-03
            1307            1730     315.760E-03     308.901E-03
            1324            1731     276.530E-03     270.146E-03
            1325            1731     276.530E-03     270.146E-03
            1308            1731     276.530E-03     270.146E-03
            1309            1731     276.530E-03     270.146E-03
            1325            1732     239.295E-03     233.580E-03
            1326            1732     239.295E-03     233.580E-03
            1310            1732     239.295E-03     233.580E-03
            1309            1732     239.295E-03     233.580E-03
            1327            1733     204.690E-03     200.814E-03
            1310            1733     204.690E-03     200.814E-03
            1326            1733     204.690E-03     200.814E-03
            1311            1733     204.690E-03     200.814E-03
            1312            1734     173.789E-03     176.352E-03
            1327            1734     173.789E-03     176.352E-03
            1328            1734     173.789E-03     176.352E-03
            1311            1734     173.789E-03     176.352E-03
            1312            1735     149.934E-03     166.299E-03
            1313            1735     149.934E-03     166.299E-03
            1328            1735     149.934E-03     166.299E-03
            1329            1735     149.934E-03     166.299E-03
            1315            1736     644.405E-03     653.602E-03
            1331            1736     644.405E-03     653.602E-03
            1314            1736     644.405E-03     653.602E-03
            1330            1736     644.405E-03     653.602E-03
            1331            1737     629.878E-03     637.909E-03
            1316            1737     629.878E-03     637.909E-03
            1332            1737     629.878E-03     637.909E-03
            1315            1737     629.878E-03     637.909E-03
            1332            1738     606.558E-03     611.215E-03
            1316            1738     606.558E-03     611.215E-03
            1317            1738     606.558E-03     611.215E-03
            1333            1738     606.558E-03     611.215E-03
            1317            1739     570.261E-03     572.128E-03
            1334            1739     570.261E-03     572.128E-03
            1333            1739     570.261E-03     572.128E-03
            1318            1739     570.261E-03     572.128E-03
            1319            1740     527.590E-03     528.310E-03
            1335            1740     527.590E-03     528.310E-03
            1318            1740     527.590E-03     528.310E-03
            1334            1740     527.590E-03     528.310E-03
            1320            1741     482.593E-03     483.173E-03
            1335            1741     482.593E-03     483.173E-03
            1336            1741     482.593E-03     483.173E-03
            1319            1741     482.593E-03     483.173E-03
            1321            1742     437.589E-03     437.919E-03
            1336            1742     437.589E-03     437.919E-03
            1337            1742     437.589E-03     437.919E-03
            1320            1742     437.589E-03     437.919E-03
            1322            1743     392.701E-03     393.063E-03
            1338            1743     392.701E-03     393.063E-03
            1321            1743     392.701E-03     393.063E-03
            1337            1743     392.701E-03     393.063E-03
            1323            1744     348.524E-03     348.819E-03
            1339            1744     348.524E-03     348.819E-03
            1338            1744     348.524E-03     348.819E-03
            1322            1744     348.524E-03     348.819E-03
            1323            1745     305.131E-03     305.415E-03
            1339            1745     305.131E-03     305.415E-03
            1324            1745     305.131E-03     305.415E-03
            1340            1745     305.131E-03     305.415E-03
            1340            1746     262.827E-03     263.287E-03
            1324            1746     262.827E-03     263.287E-03
            1325            1746     262.827E-03     263.287E-03
            1341            1746     262.827E-03     263.287E-03
            1325            1747     222.087E-03     223.293E-03
            1326            1747     222.087E-03     223.293E-03
            1342            1747     222.087E-03     223.293E-03
            1341            1747     222.087E-03     223.293E-03
            1342            1748     183.453E-03     187.291E-03
            1326            1748     183.453E-03     187.291E-03
            1343            1748     183.453E-03     187.291E-03
            1327            1748     183.453E-03     187.291E-03
            1327            1749     149.271E-03     159.501E-03
            1344            1749     149.271E-03     159.501E-03
            1328            1749     149.271E-03     159.501E-03
            1343            1749     149.271E-03     159.501E-03
            1345            1750     129.386E-03     137.634E-03
            1328            1750     129.386E-03     137.634E-03
            1329            1750     129.386E-03     137.634E-03
            1344            1750     129.386E-03     137.634E-03
            1330            1751     700.556E-03     713.168E-03
            1331            1751     700.556E-03     713.168E-03
            1346            1751     700.556E-03     713.168E-03
            1347            1751     700.556E-03     713.168E-03
            1348            1752     661.955E-03     680.562E-03
            1347            1752     661.955E-03     680.562E-03
            1331            1752     661.955E-03     680.562E-03
            1332            1752     661.955E-03     680.562E-03
            1348            1753     623.915E-03     639.496E-03
            1333            1753     623.915E-03     639.496E-03
            1332            1753     623.915E-03     639.496E-03
            1349            1753     623.915E-03     639.496E-03
            1333            1754     578.482E-03     591.085E-03
            1349            1754     578.482E-03     591.085E-03
            1334            1754     578.482E-03     591.085E-03
            1350            1754     578.482E-03     591.085E-03
            1335            1755     529.815E-03     540.837E-03
            1351            1755     529.815E-03     540.837E-03
            1334            1755     529.815E-03     540.837E-03
            1350            1755     529.815E-03     540.837E-03
            1352            1756     481.883E-03     491.572E-03
            1335            1756     481.883E-03     491.572E-03
            1351            1756     481.883E-03     491.572E-03
            1336            1756     481.883E-03     491.572E-03
            1337            1757     434.054E-03     443.075E-03
            1353            1757     434.054E-03     443.075E-03
            1352            1757     434.054E-03     443.075E-03
            1336            1757     434.054E-03     443.075E-03
            1353            1758     387.015E-03     395.618E-03
            1337            1758     387.015E-03     395.618E-03
            1354            1758     387.015E-03     395.618E-03
            1338            1758     387.015E-03     395.618E-03
            1354            1759     340.653E-03     348.975E-03
            1339            1759     340.653E-03     348.975E-03
            1338            1759     340.653E-03     348.975E-03
            1355            1759     340.653E-03     348.975E-03
            1355            1760     295.042E-03     303.209E-03
            1356            1760     295.042E-03     303.209E-03
            1339            1760     295.042E-03     303.209E-03
            1340            1760     295.042E-03     303.209E-03
            1340            1761     250.372E-03     258.572E-03
            1356            1761     250.372E-03     258.572E-03
            1357            1761     250.372E-03     258.572E-03
            1341            1761     250.372E-03     258.572E-03
            1342            1762     206.841E-03     215.557E-03
            1358            1762     206.841E-03     215.557E-03
            1341            1762     206.841E-03     215.557E-03
            1357            1762     206.841E-03     215.557E-03
            1358            1763     165.226E-03     176.066E-03
            1359            1763     165.226E-03     176.066E-03
            1343            1763     165.226E-03     176.066E-03
            1342            1763     165.226E-03     176.066E-03
            1360            1764     129.907E-03     140.063E-03
            1359            1764     129.907E-03     140.063E-03
            1343            1764     129.907E-03     140.063E-03
            1344            1764     129.907E-03     140.063E-03
            1361            1765     106.194E-03     107.884E-03
            1345            1765     106.194E-03     107.884E-03
            1360            1765     106.194E-03     107.884E-03
            1344            1765     106.194E-03     107.884E-03
            1346            1766     747.550E-03     765.583E-03
            1347            1766     747.550E-03     765.583E-03
            1362            1766     747.550E-03     765.583E-03
            1363            1766     747.550E-03     765.583E-03
            1348            1767     691.007E-03     710.468E-03
            1363            1767     691.007E-03     710.468E-03
            1364            1767     691.007E-03     710.468E-03
            1347            1767     691.007E-03     710.468E-03
            1348            1768     630.854E-03     652.249E-03
            1349            1768     630.854E-03     652.249E-03
            1364            1768     630.854E-03     652.249E-03
            1365            1768     630.854E-03     652.249E-03
            1349            1769     574.542E-03     595.904E-03
            1365            1769     574.542E-03     595.904E-03
            1350            1769     574.542E-03     595.904E-03
            1366            1769     574.542E-03     595.904E-03
            1351            1770     524.051E-03     543.611E-03
            1367            1770     524.051E-03     543.611E-03
            1366            1770     524.051E-03     543.611E-03
            1350            1770     524.051E-03     543.611E-03
            1352            1771     474.684E-03     492.885E-03
            1367            1771     474.684E-03     492.885E-03
            1368            1771     474.684E-03     492.885E-03
            1351            1771     474.684E-03     492.885E-03
            1352            1772     426.364E-03     443.862E-03
            1369            1772     426.364E-03     443.862E-03
            1353            1772     426.364E-03     443.862E-03
            1368            1772     426.364E-03     443.862E-03
            1353            1773     378.672E-03     395.656E-03
            1354            1773     378.672E-03     395.656E-03
            1369            1773     378.672E-03     395.656E-03
            1370            1773     378.672E-03     395.656E-03
            1370            1774     331.443E-03     348.168E-03
            1354            1774     331.443E-03     348.168E-03
            1371            1774     331.443E-03     348.168E-03
            1355            1774     331.443E-03     348.168E-03
            1355            1775     284.771E-03     301.284E-03
            1356            1775     284.771E-03     301.284E-03
            1371            1775     284.771E-03     301.284E-03
            1372            1775     284.771E-03     301.284E-03
            1356            1776     238.640E-03     255.046E-03
            1357            1776     238.640E-03     255.046E-03
            1372            1776     238.640E-03     255.046E-03
            1373            1776     238.640E-03     255.046E-03
            1357            1777     193.329E-03     209.914E-03
            1358            1777     193.329E-03     209.914E-03
            1373            1777     193.329E-03     209.914E-03
            1374            1777     193.329E-03     209.914E-03
            1375            1778     150.002E-03     166.165E-03
            1358            1778     150.002E-03     166.165E-03
            1359            1778     150.002E-03     166.165E-03
            1374            1778     150.002E-03     166.165E-03
            1375            1779     110.882E-03     123.774E-03
            1360            1779     110.882E-03     123.774E-03
            1359            1779     110.882E-03     123.774E-03
            1376            1779     110.882E-03     123.774E-03
            1376            1780     82.3758E-03     87.3492E-03
            1377            1780     82.3758E-03     87.3492E-03
            1360            1780     82.3758E-03     87.3492E-03
            1361            1780     82.3758E-03     87.3492E-03
            1379            1781     792.708E-03     802.478E-03
            1362            1781     792.708E-03     802.478E-03
            1378            1781     792.708E-03     802.478E-03
            1363            1781     792.708E-03     802.478E-03
            1363            1782     701.201E-03     722.323E-03
            1380            1782     701.201E-03     722.323E-03
            1364            1782     701.201E-03     722.323E-03
            1379            1782     701.201E-03     722.323E-03
            1381            1783     620.593E-03     647.820E-03
            1380            1783     620.593E-03     647.820E-03
            1364            1783     620.593E-03     647.820E-03
            1365            1783     620.593E-03     647.820E-03
            1382            1784     562.436E-03     589.720E-03
            1381            1784     562.436E-03     589.720E-03
            1365            1784     562.436E-03     589.720E-03
            1366            1784     562.436E-03     589.720E-03
            1383            1785     511.199E-03     537.570E-03
            1366            1785     511.199E-03     537.570E-03
            1367            1785     511.199E-03     537.570E-03
            1382            1785     511.199E-03     537.570E-03
            1383            1786     462.505E-03     488.511E-03
            1384            1786     462.505E-03     488.511E-03
            1367            1786     462.505E-03     488.511E-03
            1368            1786     462.505E-03     488.511E-03
            1368            1787     415.072E-03     440.648E-03
            1384            1787     415.072E-03     440.648E-03
            1369            1787     415.072E-03     440.648E-03
            1385            1787     415.072E-03     440.648E-03
            1369            1788     367.866E-03     393.357E-03
            1386            1788     367.866E-03     393.357E-03
            1385            1788     367.866E-03     393.357E-03
            1370            1788     367.866E-03     393.357E-03
            1370            1789     320.945E-03     346.312E-03
            1387            1789     320.945E-03     346.312E-03
            1371            1789     320.945E-03     346.312E-03
            1386            1789     320.945E-03     346.312E-03
            1371            1790     274.136E-03     299.381E-03
            1387            1790     274.136E-03     299.381E-03
            1372            1790     274.136E-03     299.381E-03
            1388            1790     274.136E-03     299.381E-03
            1373            1791     227.591E-03     252.644E-03
            1372            1791     227.591E-03     252.644E-03
            1389            1791     227.591E-03     252.644E-03
            1388            1791     227.591E-03     252.644E-03
            1390            1792     181.512E-03     206.165E-03
            1374            1792     181.512E-03     206.165E-03
            1389            1792     181.512E-03     206.165E-03
            1373            1792     181.512E-03     206.165E-03
            1391            1793     136.675E-03     159.469E-03
            1375            1793     136.675E-03     159.469E-03
            1390            1793     136.675E-03     159.469E-03
            1374            1793     136.675E-03     159.469E-03
            1375            1794     94.2323E-03     113.773E-03
            1391            1794     94.2323E-03     113.773E-03
            1376            1794     94.2323E-03     113.773E-03
            1392            1794     94.2323E-03     113.773E-03
            1376            1795     59.6772E-03     70.3786E-03
            1377            1795     59.6772E-03     70.3786E-03
            1393            1795     59.6772E-03     70.3786E-03
            1392            1795     59.6772E-03     70.3786E-03
            1394            1796     804.214E-03     826.591E-03
            1378            1796     804.214E-03     826.591E-03
            1395            1796     804.214E-03     826.591E-03
            1379            1796     804.214E-03     826.591E-03
            1395            1797     679.207E-03     708.710E-03
            1379            1797     679.207E-03     708.710E-03
            1396            1797     679.207E-03     708.710E-03
            1380            1797     679.207E-03     708.710E-03
            1380            1798     601.877E-03     631.860E-03
            1381            1798     601.877E-03     631.860E-03
            1396            1798     601.877E-03     631.860E-03
            1397            1798     601.877E-03     631.860E-03
            1382            1799     545.135E-03     576.300E-03
            1381            1799     545.135E-03     576.300E-03
            1397            1799     545.135E-03     576.300E-03
            1398            1799     545.135E-03     576.300E-03
            1398            1800     494.529E-03     526.977E-03
            1383            1800     494.529E-03     526.977E-03
            1399            1800     494.529E-03     526.977E-03
            1382            1800     494.529E-03     526.977E-03
            1399            1801     447.700E-03     480.896E-03
            1400            1801     447.700E-03     480.896E-03
            1383            1801     447.700E-03     480.896E-03
            1384            1801     447.700E-03     480.896E-03
            1384            1802     401.542E-03     435.320E-03
            1401            1802     401.542E-03     435.320E-03
            1400            1802     401.542E-03     435.320E-03
            1385            1802     401.542E-03     435.320E-03
            1386            1803     355.779E-03     389.868E-03
            1401            1803     355.779E-03     389.868E-03
            1402            1803     355.779E-03     389.868E-03
            1385            1803     355.779E-03     389.868E-03
            1403            1804     309.835E-03     344.107E-03
            1402            1804     309.835E-03     344.107E-03
            1386            1804     309.835E-03     344.107E-03
            1387            1804     309.835E-03     344.107E-03
            1388            1805     263.767E-03     298.108E-03
            1387            1805     263.767E-03     298.108E-03
            1404            1805     263.767E-03     298.108E-03
            1403            1805     263.767E-03     298.108E-03
            1404            1806     217.642E-03     251.818E-03
            1388            1806     217.642E-03     251.818E-03
            1405            1806     217.642E-03     251.818E-03
            1389            1806     217.642E-03     251.818E-03
            1406            1807     171.743E-03     205.049E-03
            1390            1807     171.743E-03     205.049E-03
            1405            1807     171.743E-03     205.049E-03
            1389            1807     171.743E-03     205.049E-03
            1407            1808     126.167E-03     157.941E-03
            1406            1808     126.167E-03     157.941E-03
            1391            1808     126.167E-03     157.941E-03
            1390            1808     126.167E-03     157.941E-03
            1407            1809     82.2455E-03     109.777E-03
            1392            1809     82.2455E-03     109.777E-03
            1391            1809     82.2455E-03     109.777E-03
            1408            1809     82.2455E-03     109.777E-03
            1409            1810     41.7304E-03     61.8788E-03
            1408            1810     41.7304E-03     61.8788E-03
            1392            1810     41.7304E-03     61.8788E-03
            1393            1810     41.7304E-03     61.8788E-03
            1411            1811     810.669E-03     823.996E-03
            1394            1811     810.669E-03     823.996E-03
            1410            1811     810.669E-03     823.996E-03
            1395            1811     810.669E-03     823.996E-03
            1411            1812     744.935E-03     747.510E-03
            1412            1812     744.935E-03     747.510E-03
            1396            1812     744.935E-03     747.510E-03
            1395            1812     744.935E-03     747.510E-03
            1396            1813     694.811E-03     699.985E-03
            1397            1813     694.811E-03     699.985E-03
            1412            1813     694.811E-03     699.985E-03
            1413            1813     694.811E-03     699.985E-03
            1398            1814     645.277E-03     654.542E-03
            1413            1814     645.277E-03     654.542E-03
            1414            1814     645.277E-03     654.542E-03
            1397            1814     645.277E-03     654.542E-03
            1414            1815     596.752E-03     608.637E-03
            1415            1815     596.752E-03     608.637E-03
            1399            1815     596.752E-03     608.637E-03
            1398            1815     596.752E-03     608.637E-03
            1399            1816     547.235E-03     561.459E-03
            1415            1816     547.235E-03     561.459E-03
            1416            1816     547.235E-03     561.459E-03
            1400            1816     547.235E-03     561.459E-03
            1416            1817     497.456E-03     512.619E-03
            1417            1817     497.456E-03     512.619E-03
            1401            1817     497.456E-03     512.619E-03
            1400            1817     497.456E-03     512.619E-03
            1401            1818     446.884E-03     462.891E-03
            1417            1818     446.884E-03     462.891E-03
            1418            1818     446.884E-03     462.891E-03
            1402            1818     446.884E-03     462.891E-03
            1403            1819     396.187E-03     412.571E-03
            1418            1819     396.187E-03     412.571E-03
            1419            1819     396.187E-03     412.571E-03
            1402            1819     396.187E-03     412.571E-03
            1420            1820     345.405E-03     362.108E-03
            1403            1820     345.405E-03     362.108E-03
            1419            1820     345.405E-03     362.108E-03
            1404            1820     345.405E-03     362.108E-03
            1405            1821     295.232E-03     311.986E-03
            1404            1821     295.232E-03     311.986E-03
            1420            1821     295.232E-03     311.986E-03
            1421            1821     295.232E-03     311.986E-03
            1422            1822     246.265E-03     262.756E-03
            1406            1822     246.265E-03     262.756E-03
            1405            1822     246.265E-03     262.756E-03
            1421            1822     246.265E-03     262.756E-03
            1406            1823     199.694E-03     215.123E-03
            1422            1823     199.694E-03     215.123E-03
            1407            1823     199.694E-03     215.123E-03
            1423            1823     199.694E-03     215.123E-03
            1424            1824     156.630E-03     171.692E-03
            1408            1824     156.630E-03     171.692E-03
            1423            1824     156.630E-03     171.692E-03
            1407            1824     156.630E-03     171.692E-03
            1408            1825     115.256E-03     137.726E-03
            1409            1825     115.256E-03     137.726E-03
            1425            1825     115.256E-03     137.726E-03
            1424            1825     115.256E-03     137.726E-03
            1410            1826     866.532E-03     855.301E-03
            1411            1826     866.532E-03     855.301E-03
            1427            1826     866.532E-03     855.301E-03
            1426            1826     866.532E-03     855.301E-03
            1412            1827     850.995E-03     842.466E-03
            1427            1827     850.995E-03     842.466E-03
            1428            1827     850.995E-03     842.466E-03
            1411            1827     850.995E-03     842.466E-03
            1412            1828     817.241E-03     808.128E-03
            1428            1828     817.241E-03     808.128E-03
            1429            1828     817.241E-03     808.128E-03
            1413            1828     817.241E-03     808.128E-03
            1429            1829     770.226E-03     763.297E-03
            1414            1829     770.226E-03     763.297E-03
            1430            1829     770.226E-03     763.297E-03
            1413            1829     770.226E-03     763.297E-03
            1415            1830     717.011E-03     711.779E-03
            1431            1830     717.011E-03     711.779E-03
            1430            1830     717.011E-03     711.779E-03
            1414            1830     717.011E-03     711.779E-03
            1415            1831     660.313E-03     656.188E-03
            1432            1831     660.313E-03     656.188E-03
            1431            1831     660.313E-03     656.188E-03
            1416            1831     660.313E-03     656.188E-03
            1417            1832     601.898E-03     598.822E-03
            1416            1832     601.898E-03     598.822E-03
            1432            1832     601.898E-03     598.822E-03
            1433            1832     601.898E-03     598.822E-03
            1433            1833     543.133E-03     540.410E-03
            1434            1833     543.133E-03     540.410E-03
            1417            1833     543.133E-03     540.410E-03
            1418            1833     543.133E-03     540.410E-03
            1434            1834     484.224E-03     481.916E-03
            1435            1834     484.224E-03     481.916E-03
            1419            1834     484.224E-03     481.916E-03
            1418            1834     484.224E-03     481.916E-03
            1419            1835     426.033E-03     423.849E-03
            1435            1835     426.033E-03     423.849E-03
            1436            1835     426.033E-03     423.849E-03
            1420            1835     426.033E-03     423.849E-03
            1436            1836     368.945E-03     367.001E-03
            1437            1836     368.945E-03     367.001E-03
            1421            1836     368.945E-03     367.001E-03
            1420            1836     368.945E-03     367.001E-03
            1437            1837     314.252E-03     312.505E-03
            1421            1837     314.252E-03     312.505E-03
            1422            1837     314.252E-03     312.505E-03
            1438            1837     314.252E-03     312.505E-03
            1439            1838     262.901E-03     262.425E-03
            1422            1838     262.901E-03     262.425E-03
            1438            1838     262.901E-03     262.425E-03
            1423            1838     262.901E-03     262.425E-03
            1423            1839     216.845E-03     222.682E-03
            1439            1839     216.845E-03     222.682E-03
            1440            1839     216.845E-03     222.682E-03
            1424            1839     216.845E-03     222.682E-03
            1440            1840     181.041E-03     202.993E-03
            1425            1840     181.041E-03     202.993E-03
            1441            1840     181.041E-03     202.993E-03
            1424            1840     181.041E-03     202.993E-03
            1443            1841     930.702E-03     944.096E-03
            1427            1841     930.702E-03     944.096E-03
            1426            1841     930.702E-03     944.096E-03
            1442            1841     930.702E-03     944.096E-03
            1443            1842     896.305E-03     910.239E-03
            1428            1842     896.305E-03     910.239E-03
            1427            1842     896.305E-03     910.239E-03
            1444            1842     896.305E-03     910.239E-03
            1445            1843     850.792E-03     861.880E-03
            1428            1843     850.792E-03     861.880E-03
            1429            1843     850.792E-03     861.880E-03
            1444            1843     850.792E-03     861.880E-03
            1429            1844     794.561E-03     802.255E-03
            1446            1844     794.561E-03     802.255E-03
            1445            1844     794.561E-03     802.255E-03
            1430            1844     794.561E-03     802.255E-03
            1447            1845     732.327E-03     738.471E-03
            1430            1845     732.327E-03     738.471E-03
            1431            1845     732.327E-03     738.471E-03
            1446            1845     732.327E-03     738.471E-03
            1448            1846     668.065E-03     673.934E-03
            1431            1846     668.065E-03     673.934E-03
            1432            1846     668.065E-03     673.934E-03
            1447            1846     668.065E-03     673.934E-03
            1449            1847     604.024E-03     609.474E-03
            1448            1847     604.024E-03     609.474E-03
            1433            1847     604.024E-03     609.474E-03
            1432            1847     604.024E-03     609.474E-03
            1450            1848     540.118E-03     545.550E-03
            1434            1848     540.118E-03     545.550E-03
            1449            1848     540.118E-03     545.550E-03
            1433            1848     540.118E-03     545.550E-03
            1434            1849     476.987E-03     482.263E-03
            1451            1849     476.987E-03     482.263E-03
            1435            1849     476.987E-03     482.263E-03
            1450            1849     476.987E-03     482.263E-03
            1436            1850     414.652E-03     419.818E-03
            1451            1850     414.652E-03     419.818E-03
            1435            1850     414.652E-03     419.818E-03
            1452            1850     414.652E-03     419.818E-03
            1452            1851     353.423E-03     358.658E-03
            1437            1851     353.423E-03     358.658E-03
            1436            1851     353.423E-03     358.658E-03
            1453            1851     353.423E-03     358.658E-03
            1454            1852     293.796E-03     299.800E-03
            1453            1852     293.796E-03     299.800E-03
            1438            1852     293.796E-03     299.800E-03
            1437            1852     293.796E-03     299.800E-03
            1454            1853     236.530E-03     245.262E-03
            1439            1853     236.530E-03     245.262E-03
            1455            1853     236.530E-03     245.262E-03
            1438            1853     236.530E-03     245.262E-03
            1455            1854     184.222E-03     201.052E-03
            1439            1854     184.222E-03     201.052E-03
            1440            1854     184.222E-03     201.052E-03
            1456            1854     184.222E-03     201.052E-03
            1440            1855     150.984E-03     165.998E-03
            1456            1855     150.984E-03     165.998E-03
            1441            1855     150.984E-03     165.998E-03
            1457            1855     150.984E-03     165.998E-03
            1442            1856     989.384E-03         1.00838
            1458            1856     989.384E-03         1.00838
            1443            1856     989.384E-03         1.00838
            1459            1856     989.384E-03         1.00838
            1459            1857     933.082E-03     959.207E-03
            1460            1857     933.082E-03     959.207E-03
            1444            1857     933.082E-03     959.207E-03
            1443            1857     933.082E-03     959.207E-03
            1445            1858     873.519E-03     896.435E-03
            1444            1858     873.519E-03     896.435E-03
            1460            1858     873.519E-03     896.435E-03
            1461            1858     873.519E-03     896.435E-03
            1446            1859     806.308E-03     825.796E-03
            1461            1859     806.308E-03     825.796E-03
            1462            1859     806.308E-03     825.796E-03
            1445            1859     806.308E-03     825.796E-03
            1462            1860     737.123E-03     754.366E-03
            1463            1860     737.123E-03     754.366E-03
            1447            1860     737.123E-03     754.366E-03
            1446            1860     737.123E-03     754.366E-03
            1447            1861     669.246E-03     684.626E-03
            1464            1861     669.246E-03     684.626E-03
            1448            1861     669.246E-03     684.626E-03
            1463            1861     669.246E-03     684.626E-03
            1448            1862     601.723E-03     616.162E-03
            1464            1862     601.723E-03     616.162E-03
            1449            1862     601.723E-03     616.162E-03
            1465            1862     601.723E-03     616.162E-03
            1466            1863     535.148E-03     548.991E-03
            1450            1863     535.148E-03     548.991E-03
            1465            1863     535.148E-03     548.991E-03
            1449            1863     535.148E-03     548.991E-03
            1466            1864     469.296E-03     482.767E-03
            1467            1864     469.296E-03     482.767E-03
            1451            1864     469.296E-03     482.767E-03
            1450            1864     469.296E-03     482.767E-03
            1452            1865     404.189E-03     417.464E-03
            1467            1865     404.189E-03     417.464E-03
            1468            1865     404.189E-03     417.464E-03
            1451            1865     404.189E-03     417.464E-03
            1468            1866     339.946E-03     353.305E-03
            1469            1866     339.946E-03     353.305E-03
            1452            1866     339.946E-03     353.305E-03
            1453            1866     339.946E-03     353.305E-03
            1453            1867     276.625E-03     290.786E-03
            1454            1867     276.625E-03     290.786E-03
            1469            1867     276.625E-03     290.786E-03
            1470            1867     276.625E-03     290.786E-03
            1454            1868     214.695E-03     232.281E-03
            1455            1868     214.695E-03     232.281E-03
            1471            1868     214.695E-03     232.281E-03
            1470            1868     214.695E-03     232.281E-03
            1471            1869     159.369E-03     177.797E-03
            1472            1869     159.369E-03     177.797E-03
            1455            1869     159.369E-03     177.797E-03
            1456            1869     159.369E-03     177.797E-03
            1473            1870     119.308E-03     127.707E-03
            1472            1870     119.308E-03     127.707E-03
            1457            1870     119.308E-03     127.707E-03
            1456            1870     119.308E-03     127.707E-03
            1459            1871         1.03662         1.06104
            1474            1871         1.03662         1.06104
            1475            1871         1.03662         1.06104
            1458            1871         1.03662         1.06104
            1476            1872     962.234E-03     989.220E-03
            1475            1872     962.234E-03     989.220E-03
            1460            1872     962.234E-03     989.220E-03
            1459            1872     962.234E-03     989.220E-03
            1461            1873     880.492E-03     909.257E-03
            1477            1873     880.492E-03     909.257E-03
            1476            1873     880.492E-03     909.257E-03
            1460            1873     880.492E-03     909.257E-03
            1461            1874     802.339E-03     830.653E-03
            1462            1874     802.339E-03     830.653E-03
            1478            1874     802.339E-03     830.653E-03
            1477            1874     802.339E-03     830.653E-03
            1463            1875     731.307E-03     757.165E-03
            1478            1875     731.307E-03     757.165E-03
            1479            1875     731.307E-03     757.165E-03
            1462            1875     731.307E-03     757.165E-03
            1464            1876     661.972E-03     685.952E-03
            1479            1876     661.972E-03     685.952E-03
            1463            1876     661.972E-03     685.952E-03
            1480            1876     661.972E-03     685.952E-03
            1465            1877     593.939E-03     616.956E-03
            1481            1877     593.939E-03     616.956E-03
            1480            1877     593.939E-03     616.956E-03
            1464            1877     593.939E-03     616.956E-03
            1465            1878     526.683E-03     549.026E-03
            1482            1878     526.683E-03     549.026E-03
            1481            1878     526.683E-03     549.026E-03
            1466            1878     526.683E-03     549.026E-03
            1482            1879     459.919E-03     481.942E-03
            1483            1879     459.919E-03     481.942E-03
            1466            1879     459.919E-03     481.942E-03
            1467            1879     459.919E-03     481.942E-03
            1468            1880     393.683E-03     415.492E-03
            1483            1880     393.683E-03     415.492E-03
            1484            1880     393.683E-03     415.492E-03
            1467            1880     393.683E-03     415.492E-03
            1484            1881     327.847E-03     349.670E-03
            1485            1881     327.847E-03     349.670E-03
            1468            1881     327.847E-03     349.670E-03
            1469            1881     327.847E-03     349.670E-03
            1470            1882     262.494E-03     284.900E-03
            1485            1882     262.494E-03     284.900E-03
            1486            1882     262.494E-03     284.900E-03
            1469            1882     262.494E-03     284.900E-03
            1486            1883     198.338E-03     221.709E-03
            1487            1883     198.338E-03     221.709E-03
            1470            1883     198.338E-03     221.709E-03
            1471            1883     198.338E-03     221.709E-03
            1487            1884     137.319E-03     159.766E-03
            1471            1884     137.319E-03     159.766E-03
            1488            1884     137.319E-03     159.766E-03
            1472            1884     137.319E-03     159.766E-03
            1488            1885     88.4736E-03     103.056E-03
            1473            1885     88.4736E-03     103.056E-03
            1489            1885     88.4736E-03     103.056E-03
            1472            1885     88.4736E-03     103.056E-03
            1474            1886         1.07980         1.09369
            1475            1886         1.07980         1.09369
            1490            1886         1.07980         1.09369
            1491            1886         1.07980         1.09369
            1475            1887     967.874E-03     994.950E-03
            1492            1887     967.874E-03     994.950E-03
            1476            1887     967.874E-03     994.950E-03
            1491            1887     967.874E-03     994.950E-03
            1493            1888     864.902E-03     898.681E-03
            1477            1888     864.902E-03     898.681E-03
            1476            1888     864.902E-03     898.681E-03
            1492            1888     864.902E-03     898.681E-03
            1494            1889     786.678E-03     819.969E-03
            1478            1889     786.678E-03     819.969E-03
            1493            1889     786.678E-03     819.969E-03
            1477            1889     786.678E-03     819.969E-03
            1479            1890     715.793E-03     747.809E-03
            1494            1890     715.793E-03     747.809E-03
            1478            1890     715.793E-03     747.809E-03
            1495            1890     715.793E-03     747.809E-03
            1495            1891     647.770E-03     679.320E-03
            1479            1891     647.770E-03     679.320E-03
            1496            1891     647.770E-03     679.320E-03
            1480            1891     647.770E-03     679.320E-03
            1496            1892     581.235E-03     612.227E-03
            1481            1892     581.235E-03     612.227E-03
            1480            1892     581.235E-03     612.227E-03
            1497            1892     581.235E-03     612.227E-03
            1482            1893     514.925E-03     545.838E-03
            1497            1893     514.925E-03     545.838E-03
            1481            1893     514.925E-03     545.838E-03
            1498            1893     514.925E-03     545.838E-03
            1482            1894     448.922E-03     479.698E-03
            1499            1894     448.922E-03     479.698E-03
            1483            1894     448.922E-03     479.698E-03
            1498            1894     448.922E-03     479.698E-03
            1484            1895     382.964E-03     413.638E-03
            1500            1895     382.964E-03     413.638E-03
            1483            1895     382.964E-03     413.638E-03
            1499            1895     382.964E-03     413.638E-03
            1500            1896     317.139E-03     347.690E-03
            1501            1896     317.139E-03     347.690E-03
            1485            1896     317.139E-03     347.690E-03
            1484            1896     317.139E-03     347.690E-03
            1486            1897     251.499E-03     281.958E-03
            1502            1897     251.499E-03     281.958E-03
            1485            1897     251.499E-03     281.958E-03
            1501            1897     251.499E-03     281.958E-03
            1503            1898     186.668E-03     215.661E-03
            1487            1898     186.668E-03     215.661E-03
            1502            1898     186.668E-03     215.661E-03
            1486            1898     186.668E-03     215.661E-03
            1488            1899     122.388E-03     150.729E-03
            1503            1899     122.388E-03     150.729E-03
            1504            1899     122.388E-03     150.729E-03
            1487            1899     122.388E-03     150.729E-03
            1488            1900     62.3335E-03     88.3229E-03
            1505            1900     62.3335E-03     88.3229E-03
            1489            1900     62.3335E-03     88.3229E-03
            1504            1900     62.3335E-03     88.3229E-03
            1491            1901         1.08298         1.10724
            1507            1901         1.08298         1.10724
            1506            1901         1.08298         1.10724
            1490            1901         1.08298         1.10724
            1492            1902     934.891E-03     968.045E-03
            1491            1902     934.891E-03     968.045E-03
            1508            1902     934.891E-03     968.045E-03
            1507            1902     934.891E-03     968.045E-03
            1493            1903     838.021E-03     871.709E-03
            1492            1903     838.021E-03     871.709E-03
            1508            1903     838.021E-03     871.709E-03
            1509            1903     838.021E-03     871.709E-03
            1510            1904     763.024E-03     798.458E-03
            1509            1904     763.024E-03     798.458E-03
            1493            1904     763.024E-03     798.458E-03
            1494            1904     763.024E-03     798.458E-03
            1511            1905     694.308E-03     731.513E-03
            1510            1905     694.308E-03     731.513E-03
            1494            1905     694.308E-03     731.513E-03
            1495            1905     694.308E-03     731.513E-03
            1511            1906     629.517E-03     667.784E-03
            1495            1906     629.517E-03     667.784E-03
            1512            1906     629.517E-03     667.784E-03
            1496            1906     629.517E-03     667.784E-03
            1512            1907     565.297E-03     604.403E-03
            1496            1907     565.297E-03     604.403E-03
            1497            1907     565.297E-03     604.403E-03
            1513            1907     565.297E-03     604.403E-03
            1514            1908     501.452E-03     540.965E-03
            1497            1908     501.452E-03     540.965E-03
            1513            1908     501.452E-03     540.965E-03
            1498            1908     501.452E-03     540.965E-03
            1498            1909     437.294E-03     477.070E-03
            1515            1909     437.294E-03     477.070E-03
            1499            1909     437.294E-03     477.070E-03
            1514            1909     437.294E-03     477.070E-03
            1499            1910     372.947E-03     412.798E-03
            1515            1910     372.947E-03     412.798E-03
            1516            1910     372.947E-03     412.798E-03
            1500            1910     372.947E-03     412.798E-03
            1500            1911     308.468E-03     348.134E-03
            1516            1911     308.468E-03     348.134E-03
            1517            1911     308.468E-03     348.134E-03
            1501            1911     308.468E-03     348.134E-03
            1517            1912     244.248E-03     282.851E-03
            1518            1912     244.248E-03     282.851E-03
            1502            1912     244.248E-03     282.851E-03
            1501            1912     244.248E-03     282.851E-03
            1502            1913     180.371E-03     217.152E-03
            1518            1913     180.371E-03     217.152E-03
            1503            1913     180.371E-03     217.152E-03
            1519            1913     180.371E-03     217.152E-03
            1519            1914     118.471E-03     150.430E-03
            1520            1914     118.471E-03     150.430E-03
            1504            1914     118.471E-03     150.430E-03
            1503            1914     118.471E-03     150.430E-03
            1521            1915     57.3921E-03     87.3059E-03
            1505            1915     57.3921E-03     87.3059E-03
            1520            1915     57.3921E-03     87.3059E-03
            1504            1915     57.3921E-03     87.3059E-03
            1507            1916         1.08140         1.10026
            1523            1916         1.08140         1.10026
            1506            1916         1.08140         1.10026
            1522            1916         1.08140         1.10026
            1508            1917     994.821E-03     999.903E-03
            1524            1917     994.821E-03     999.903E-03
            1507            1917     994.821E-03     999.903E-03
            1523            1917     994.821E-03     999.903E-03
            1508            1918     927.391E-03     935.226E-03
            1524            1918     927.391E-03     935.226E-03
            1525            1918     927.391E-03     935.226E-03
            1509            1918     927.391E-03     935.226E-03
            1526            1919     859.032E-03     872.053E-03
            1525            1919     859.032E-03     872.053E-03
            1510            1919     859.032E-03     872.053E-03
            1509            1919     859.032E-03     872.053E-03
            1526            1920     792.658E-03     808.573E-03
            1527            1920     792.658E-03     808.573E-03
            1511            1920     792.658E-03     808.573E-03
            1510            1920     792.658E-03     808.573E-03
            1512            1921     724.891E-03     743.173E-03
            1528            1921     724.891E-03     743.173E-03
            1527            1921     724.891E-03     743.173E-03
            1511            1921     724.891E-03     743.173E-03
            1512            1922     657.107E-03     676.232E-03
            1528            1922     657.107E-03     676.232E-03
            1513            1922     657.107E-03     676.232E-03
            1529            1922     657.107E-03     676.232E-03
            1530            1923     588.507E-03     608.423E-03
            1514            1923     588.507E-03     608.423E-03
            1529            1923     588.507E-03     608.423E-03
            1513            1923     588.507E-03     608.423E-03
            1530            1924     519.669E-03     539.754E-03
            1531            1924     519.669E-03     539.754E-03
            1515            1924     519.669E-03     539.754E-03
            1514            1924     519.669E-03     539.754E-03
            1531            1925     450.629E-03     471.087E-03
            1516            1925     450.629E-03     471.087E-03
            1532            1925     450.629E-03     471.087E-03
            1515            1925     450.629E-03     471.087E-03
            1533            1926     382.123E-03     402.525E-03
            1516            1926     382.123E-03     402.525E-03
            1517            1926     382.123E-03     402.525E-03
            1532            1926     382.123E-03     402.525E-03
            1533            1927     314.923E-03     334.966E-03
            1517            1927     314.923E-03     334.966E-03
            1534            1927     314.923E-03     334.966E-03
            1518            1927     314.923E-03     334.966E-03
            1518            1928     250.554E-03     268.874E-03
            1519            1928     250.554E-03     268.874E-03
            1534            1928     250.554E-03     268.874E-03
            1535            1928     250.554E-03     268.874E-03
            1535            1929     191.225E-03     207.814E-03
            1519            1929     191.225E-03     207.814E-03
            1520            1929     191.225E-03     207.814E-03
            1536            1929     191.225E-03     207.814E-03
            1536            1930     136.835E-03     159.594E-03
            1521            1930     136.835E-03     159.594E-03
            1520            1930     136.835E-03     159.594E-03
            1537            1930     136.835E-03     159.594E-03
            1539            1931         1.14474         1.13834
            1523            1931         1.14474         1.13834
            1538            1931         1.14474         1.13834
            1522            1931         1.14474         1.13834
            1524            1932         1.10829         1.10389
            1540            1932         1.10829         1.10389
            1523            1932         1.10829         1.10389
            1539            1932         1.10829         1.10389
            1524            1933         1.05143         1.04839
            1540            1933         1.05143         1.04839
            1525            1933         1.05143         1.04839
            1541            1933         1.05143         1.04839
            1525            1934     984.260E-03     982.180E-03
            1541            1934     984.260E-03     982.180E-03
            1542            1934     984.260E-03     982.180E-03
            1526            1934     984.260E-03     982.180E-03
            1527            1935     910.274E-03     909.579E-03
            1526            1935     910.274E-03     909.579E-03
            1543            1935     910.274E-03     909.579E-03
            1542            1935     910.274E-03     909.579E-03
            1528            1936     833.954E-03     834.430E-03
            1543            1936     833.954E-03     834.430E-03
            1544            1936     833.954E-03     834.430E-03
            1527            1936     833.954E-03     834.430E-03
            1545            1937     756.970E-03     757.677E-03
            1528            1937     756.970E-03     757.677E-03
            1544            1937     756.970E-03     757.677E-03
            1529            1937     756.970E-03     757.677E-03
            1529            1938     679.404E-03     680.469E-03
            1545            1938     679.404E-03     680.469E-03
            1546            1938     679.404E-03     680.469E-03
            1530            1938     679.404E-03     680.469E-03
            1531            1939     602.040E-03     603.093E-03
            1530            1939     602.040E-03     603.093E-03
            1547            1939     602.040E-03     603.093E-03
            1546            1939     602.040E-03     603.093E-03
            1532            1940     525.045E-03     526.223E-03
            1547            1940     525.045E-03     526.223E-03
            1548            1940     525.045E-03     526.223E-03
            1531            1940     525.045E-03     526.223E-03
            1548            1941     449.149E-03     450.325E-03
            1532            1941     449.149E-03     450.325E-03
            1549            1941     449.149E-03     450.325E-03
            1533            1941     449.149E-03     450.325E-03
            1533            1942     375.398E-03     376.764E-03
            1549            1942     375.398E-03     376.764E-03
            1550            1942     375.398E-03     376.764E-03
            1534            1942     375.398E-03     376.764E-03
            1535            1943     305.253E-03     307.260E-03
            1551            1943     305.253E-03     307.260E-03
            1550            1943     305.253E-03     307.260E-03
            1534            1943     305.253E-03     307.260E-03
            1551            1944     241.361E-03     248.216E-03
            1552            1944     241.361E-03     248.216E-03
            1535            1944     241.361E-03     248.216E-03
            1536            1944     241.361E-03     248.216E-03
            1537            1945     190.280E-03     214.479E-03
            1553            1945     190.280E-03     214.479E-03
            1552            1945     190.280E-03     214.479E-03
            1536            1945     190.280E-03     214.479E-03
            1555            1946         1.21903         1.23592
            1538            1946         1.21903         1.23592
            1554            1946         1.21903         1.23592
            1539            1946         1.21903         1.23592
            1555            1947         1.15830         1.18212
            1540            1947         1.15830         1.18212
            1556            1947         1.15830         1.18212
            1539            1947         1.15830         1.18212
            1541            1948         1.08699         1.10488
            1557            1948         1.08699         1.10488
            1540            1948         1.08699         1.10488
            1556            1948         1.08699         1.10488
            1541            1949         1.00541         1.01975
            1557            1949         1.00541         1.01975
            1558            1949         1.00541         1.01975
            1542            1949         1.00541         1.01975
            1542            1950     921.086E-03     934.180E-03
            1543            1950     921.086E-03     934.180E-03
            1559            1950     921.086E-03     934.180E-03
            1558            1950     921.086E-03     934.180E-03
            1543            1951     837.902E-03     850.055E-03
            1559            1951     837.902E-03     850.055E-03
            1560            1951     837.902E-03     850.055E-03
            1544            1951     837.902E-03     850.055E-03
            1545            1952     754.871E-03     766.830E-03
            1561            1952     754.871E-03     766.830E-03
            1544            1952     754.871E-03     766.830E-03
            1560            1952     754.871E-03     766.830E-03
            1561            1953     672.733E-03     684.452E-03
            1545            1953     672.733E-03     684.452E-03
            1562            1953     672.733E-03     684.452E-03
            1546            1953     672.733E-03     684.452E-03
            1547            1954     591.115E-03     602.739E-03
            1563            1954     591.115E-03     602.739E-03
            1546            1954     591.115E-03     602.739E-03
            1562            1954     591.115E-03     602.739E-03
            1547            1955     510.351E-03     521.640E-03
            1564            1955     510.351E-03     521.640E-03
            1548            1955     510.351E-03     521.640E-03
            1563            1955     510.351E-03     521.640E-03
            1565            1956     430.394E-03     441.483E-03
            1548            1956     430.394E-03     441.483E-03
            1549            1956     430.394E-03     441.483E-03
            1564            1956     430.394E-03     441.483E-03
            1565            1957     351.823E-03     363.019E-03
            1549            1957     351.823E-03     363.019E-03
            1566            1957     351.823E-03     363.019E-03
            1550            1957     351.823E-03     363.019E-03
            1566            1958     274.912E-03     288.454E-03
            1551            1958     274.912E-03     288.454E-03
            1550            1958     274.912E-03     288.454E-03
            1567            1958     274.912E-03     288.454E-03
            1552            1959     202.428E-03     223.792E-03
            1568            1959     202.428E-03     223.792E-03
            1551            1959     202.428E-03     223.792E-03
            1567            1959     202.428E-03     223.792E-03
            1569            1960     151.116E-03     170.365E-03
            1552            1960     151.116E-03     170.365E-03
            1553            1960     151.116E-03     170.365E-03
            1568            1960     151.116E-03     170.365E-03
            1554            1961         1.27343         1.30782
            1555            1961         1.27343         1.30782
            1571            1961         1.27343         1.30782
            1570            1961         1.27343         1.30782
            1556            1962         1.19399         1.22621
            1572            1962         1.19399         1.22621
            1555            1962         1.19399         1.22621
            1571            1962         1.19399         1.22621
            1557            1963         1.10082         1.13176
            1572            1963         1.10082         1.13176
            1573            1963         1.10082         1.13176
            1556            1963         1.10082         1.13176
            1574            1964         1.00716         1.03590
            1557            1964         1.00716         1.03590
            1573            1964         1.00716         1.03590
            1558            1964         1.00716         1.03590
            1574            1965     920.034E-03     945.463E-03
            1558            1965     920.034E-03     945.463E-03
            1559            1965     920.034E-03     945.463E-03
            1575            1965     920.034E-03     945.463E-03
            1575            1966     833.608E-03     857.485E-03
            1559            1966     833.608E-03     857.485E-03
            1560            1966     833.608E-03     857.485E-03
            1576            1966     833.608E-03     857.485E-03
            1561            1967     748.551E-03     771.720E-03
            1577            1967     748.551E-03     771.720E-03
            1576            1967     748.551E-03     771.720E-03
            1560            1967     748.551E-03     771.720E-03
            1561            1968     664.165E-03     687.033E-03
            1562            1968     664.165E-03     687.033E-03
            1577            1968     664.165E-03     687.033E-03
            1578            1968     664.165E-03     687.033E-03
            1562            1969     580.519E-03     603.117E-03
            1563            1969     580.519E-03     603.117E-03
            1578            1969     580.519E-03     603.117E-03
            1579            1969     580.519E-03     603.117E-03
            1563            1970     497.404E-03     519.745E-03
            1580            1970     497.404E-03     519.745E-03
            1564            1970     497.404E-03     519.745E-03
            1579            1970     497.404E-03     519.745E-03
            1580            1971     414.975E-03     437.052E-03
            1564            1971     414.975E-03     437.052E-03
            1565            1971     414.975E-03     437.052E-03
            1581            1971     414.975E-03     437.052E-03
            1582            1972     333.038E-03     355.231E-03
            1565            1972     333.038E-03     355.231E-03
            1566            1972     333.038E-03     355.231E-03
            1581            1972     333.038E-03     355.231E-03
            1582            1973     251.535E-03     276.417E-03
            1567            1973     251.535E-03     276.417E-03
            1566            1973     251.535E-03     276.417E-03
            1583            1973     251.535E-03     276.417E-03
            1568            1974     173.609E-03     202.433E-03
            1567            1974     173.609E-03     202.433E-03
            1584            1974     173.609E-03     202.433E-03
            1583            1974     173.609E-03     202.433E-03
            1584            1975     111.193E-03     129.335E-03
            1568            1975     111.193E-03     129.335E-03
            1569            1975     111.193E-03     129.335E-03
            1585            1975     111.193E-03     129.335E-03
            1586            1976         1.32070         1.33871
            1587            1976         1.32070         1.33871
            1570            1976         1.32070         1.33871
            1571            1976         1.32070         1.33871
            1571            1977         1.19916         1.23479
            1588            1977         1.19916         1.23479
            1587            1977         1.19916         1.23479
            1572            1977         1.19916         1.23479
            1588            1978         1.08456         1.12449
            1589            1978         1.08456         1.12449
            1572            1978         1.08456         1.12449
            1573            1978         1.08456         1.12449
            1590            1979     992.694E-03         1.03024
            1589            1979     992.694E-03         1.03024
            1573            1979     992.694E-03         1.03024
            1574            1979     992.694E-03         1.03024
            1591            1980     905.709E-03     941.242E-03
            1575            1980     905.709E-03     941.242E-03
            1590            1980     905.709E-03     941.242E-03
            1574            1980     905.709E-03     941.242E-03
            1576            1981     820.767E-03     855.447E-03
            1575            1981     820.767E-03     855.447E-03
            1592            1981     820.767E-03     855.447E-03
            1591            1981     820.767E-03     855.447E-03
            1592            1982     736.626E-03     770.896E-03
            1577            1982     736.626E-03     770.896E-03
            1576            1982     736.626E-03     770.896E-03
            1593            1982     736.626E-03     770.896E-03
            1578            1983     652.744E-03     686.913E-03
            1593            1983     652.744E-03     686.913E-03
            1594            1983     652.744E-03     686.913E-03
            1577            1983     652.744E-03     686.913E-03
            1595            1984     569.134E-03     603.215E-03
            1594            1984     569.134E-03     603.215E-03
            1579            1984     569.134E-03     603.215E-03
            1578            1984     569.134E-03     603.215E-03
            1579            1985     485.735E-03     519.656E-03
            1595            1985     485.735E-03     519.656E-03
            1580            1985     485.735E-03     519.656E-03
            1596            1985     485.735E-03     519.656E-03
            1581            1986     402.506E-03     436.221E-03
            1597            1986     402.506E-03     436.221E-03
            1596            1986     402.506E-03     436.221E-03
            1580            1986     402.506E-03     436.221E-03
            1597            1987     319.420E-03     353.223E-03
            1582            1987     319.420E-03     353.223E-03
            1598            1987     319.420E-03     353.223E-03
            1581            1987     319.420E-03     353.223E-03
            1582            1988     236.739E-03     270.866E-03
            1599            1988     236.739E-03     270.866E-03
            1583            1988     236.739E-03     270.866E-03
            1598            1988     236.739E-03     270.866E-03
            1600            1989     155.356E-03     188.354E-03
            1584            1989     155.356E-03     188.354E-03
            1599            1989     155.356E-03     188.354E-03
            1583            1989     155.356E-03     188.354E-03
            1585            1990     77.2371E-03     113.546E-03
            1601            1990     77.2371E-03     113.546E-03
            1584            1990     77.2371E-03     113.546E-03
            1600            1990     77.2371E-03     113.546E-03
            1602            1991         1.31764         1.34634
            1603            1991         1.31764         1.34634
            1586            1991         1.31764         1.34634
            1587            1991         1.31764         1.34634
            1588            1992         1.15974         1.19916
            1604            1992         1.15974         1.19916
            1603            1992         1.15974         1.19916
            1587            1992         1.15974         1.19916
            1588            1993         1.05207         1.09342
            1604            1993         1.05207         1.09342
            1605            1993         1.05207         1.09342
            1589            1993         1.05207         1.09342
            1605            1994     965.181E-03         1.00782
            1590            1994     965.181E-03         1.00782
            1589            1994     965.181E-03         1.00782
            1606            1994     965.181E-03         1.00782
            1606            1995     882.032E-03     926.241E-03
            1590            1995     882.032E-03     926.241E-03
            1591            1995     882.032E-03     926.241E-03
            1607            1995     882.032E-03     926.241E-03
            1592            1996     801.369E-03     846.351E-03
            1608            1996     801.369E-03     846.351E-03
            1591            1996     801.369E-03     846.351E-03
            1607            1996     801.369E-03     846.351E-03
            1593            1997     720.458E-03     765.839E-03
            1609            1997     720.458E-03     765.839E-03
            1592            1997     720.458E-03     765.839E-03
            1608            1997     720.458E-03     765.839E-03
            1594            1998     639.347E-03     684.970E-03
            1593            1998     639.347E-03     684.970E-03
            1609            1998     639.347E-03     684.970E-03
            1610            1998     639.347E-03     684.970E-03
            1595            1999     557.717E-03     603.434E-03
            1610            1999     557.717E-03     603.434E-03
            1611            1999     557.717E-03     603.434E-03
            1594            1999     557.717E-03     603.434E-03
            1612            2000     475.807E-03     521.629E-03
            1595            2000     475.807E-03     521.629E-03
            1596            2000     475.807E-03     521.629E-03
            1611            2000     475.807E-03     521.629E-03
            1596            2001     393.665E-03     439.413E-03
            1613            2001     393.665E-03     439.413E-03
            1612            2001     393.665E-03     439.413E-03
            1597            2001     393.665E-03     439.413E-03
            1597            2002     311.705E-03     357.145E-03
            1598            2002     311.705E-03     357.145E-03
            1613            2002     311.705E-03     357.145E-03
            1614            2002     311.705E-03     357.145E-03
            1598            2003     230.652E-03     273.846E-03
            1615            2003     230.652E-03     273.846E-03
            1599            2003     230.652E-03     273.846E-03
            1614            2003     230.652E-03     273.846E-03
            1600            2004     151.191E-03     190.231E-03
            1616            2004     151.191E-03     190.231E-03
            1615            2004     151.191E-03     190.231E-03
            1599            2004     151.191E-03     190.231E-03
            1601            2005     73.7513E-03     111.736E-03
            1617            2005     73.7513E-03     111.736E-03
            1600            2005     73.7513E-03     111.736E-03
            1616            2005     73.7513E-03     111.736E-03
            1689            2042         1.33809         1.34787
            1674            2042         1.33809         1.34787
            1690            2042         1.33809         1.34787
            1673            2042         1.33809         1.34787
            1690            2043         1.27734         1.28375
            1691            2043         1.27734         1.28375
            1674            2043         1.27734         1.28375
            1675            2043         1.27734         1.28375
            1692            2044         1.20226         1.20902
            1675            2044         1.20226         1.20902
            1676            2044         1.20226         1.20902
            1691            2044         1.20226         1.20902
            1676            2045         1.11717         1.12419
            1677            2045         1.11717         1.12419
            1693            2045         1.11717         1.12419
            1692            2045         1.11717         1.12419
            1677            2046         1.02888         1.03578
            1678            2046         1.02888         1.03578
            1694            2046         1.02888         1.03578
            1693            2046         1.02888         1.03578
            1694            2047     939.697E-03     946.559E-03
            1695            2047     939.697E-03     946.559E-03
            1678            2047     939.697E-03     946.559E-03
            1679            2047     939.697E-03     946.559E-03
            1680            2048     849.916E-03     855.826E-03
            1696            2048     849.916E-03     855.826E-03
            1695            2048     849.916E-03     855.826E-03
            1679            2048     849.916E-03     855.826E-03
            1681            2049     759.684E-03     765.368E-03
            1696            2049     759.684E-03     765.368E-03
            1697            2049     759.684E-03     765.368E-03
            1680            2049     759.684E-03     765.368E-03
            1697            2050     669.726E-03     674.679E-03
            1682            2050     669.726E-03     674.679E-03
            1698            2050     669.726E-03     674.679E-03
            1681            2050     669.726E-03     674.679E-03
            1699            2051     580.137E-03     584.899E-03
            1682            2051     580.137E-03     584.899E-03
            1683            2051     580.137E-03     584.899E-03
            1698            2051     580.137E-03     584.899E-03
            1684            2052     491.637E-03     496.118E-03
            1700            2052     491.637E-03     496.118E-03
            1683            2052     491.637E-03     496.118E-03
            1699            2052     491.637E-03     496.118E-03
            1700            2053     404.851E-03     409.618E-03
            1701            2053     404.851E-03     409.618E-03
            1685            2053     404.851E-03     409.618E-03
            1684            2053     404.851E-03     409.618E-03
            1702            2054     320.895E-03     326.067E-03
            1701            2054     320.895E-03     326.067E-03
            1686            2054     320.895E-03     326.067E-03
            1685            2054     320.895E-03     326.067E-03
            1703            2055     242.541E-03     250.431E-03
            1687            2055     242.541E-03     250.431E-03
            1686            2055     242.541E-03     250.431E-03
            1702            2055     242.541E-03     250.431E-03
            1704            2056     168.933E-03     185.128E-03
            1687            2056     168.933E-03     185.128E-03
            1703            2056     168.933E-03     185.128E-03
            1688            2056     168.933E-03     185.128E-03
            1706            2057         1.43016         1.44063
            1705            2057         1.43016         1.44063
            1689            2057         1.43016         1.44063
            1690            2057         1.43016         1.44063
            1707            2058         1.37769         1.38209
            1706            2058         1.37769         1.38209
            1691            2058         1.37769         1.38209
            1690            2058         1.37769         1.38209
            1692            2059         1.29379         1.29701
            1691            2059         1.29379         1.29701
            1708            2059         1.29379         1.29701
            1707            2059         1.29379         1.29701
            1709            2060         1.19972         1.20322
            1708            2060         1.19972         1.20322
            1693            2060         1.19972         1.20322
            1692            2060         1.19972         1.20322
            1694            2061         1.10543         1.10767
            1693            2061         1.10543         1.10767
            1710            2061         1.10543         1.10767
            1709            2061         1.10543         1.10767
            1694            2062         1.00977         1.01170
            1711            2062         1.00977         1.01170
            1710            2062         1.00977         1.01170
            1695            2062         1.00977         1.01170
            1711            2063     914.387E-03     915.330E-03
            1696            2063     914.387E-03     915.330E-03
            1712            2063     914.387E-03     915.330E-03
            1695            2063     914.387E-03     915.330E-03
            1696            2064     818.796E-03     819.183E-03
            1697            2064     818.796E-03     819.183E-03
            1712            2064     818.796E-03     819.183E-03
            1713            2064     818.796E-03     819.183E-03
            1713            2065     723.865E-03     723.441E-03
            1697            2065     723.865E-03     723.441E-03
            1698            2065     723.865E-03     723.441E-03
            1714            2065     723.865E-03     723.441E-03
            1698            2066     629.942E-03     628.938E-03
            1714            2066     629.942E-03     628.938E-03
            1715            2066     629.942E-03     628.938E-03
            1699            2066     629.942E-03     628.938E-03
            1699            2067     537.896E-03     536.149E-03
            1715            2067     537.896E-03     536.149E-03
            1700            2067     537.896E-03     536.149E-03
            1716            2067     537.896E-03     536.149E-03
            1716            2068     449.149E-03     447.171E-03
            1717            2068     449.149E-03     447.171E-03
            1700            2068     449.149E-03     447.171E-03
            1701            2068     449.149E-03     447.171E-03
            1701            2069     365.187E-03     363.406E-03
            1702            2069     365.187E-03     363.406E-03
            1717            2069     365.187E-03     363.406E-03
            1718            2069     365.187E-03     363.406E-03
            1718            2070     290.262E-03     293.276E-03
            1703            2070     290.262E-03     293.276E-03
            1702            2070     290.262E-03     293.276E-03
            1719            2070     290.262E-03     293.276E-03
            1720            2071     227.198E-03     244.344E-03
            1704            2071     227.198E-03     244.344E-03
            1719            2071     227.198E-03     244.344E-03
            1703            2071     227.198E-03     244.344E-03
            1705            2072         1.52216         1.54007
            1706            2072         1.52216         1.54007
            1721            2072         1.52216         1.54007
            1722            2072         1.52216         1.54007
            1722            2073         1.41553         1.44762
            1706            2073         1.41553         1.44762
            1707            2073         1.41553         1.44762
            1723            2073         1.41553         1.44762
            1707            2074         1.29937         1.33051
            1723            2074         1.29937         1.33051
            1708            2074         1.29937         1.33051
            1724            2074         1.29937         1.33051
            1709            2075         1.19561         1.22427
            1725            2075         1.19561         1.22427
            1724            2075         1.19561         1.22427
            1708            2075         1.19561         1.22427
            1709            2076         1.09331         1.12105
            1710            2076         1.09331         1.12105
            1726            2076         1.09331         1.12105
            1725            2076         1.09331         1.12105
            1710            2077     992.135E-03         1.01957
            1726            2077     992.135E-03         1.01957
            1711            2077     992.135E-03         1.01957
            1727            2077     992.135E-03         1.01957
            1727            2078     891.798E-03     919.463E-03
            1728            2078     891.798E-03     919.463E-03
            1711            2078     891.798E-03     919.463E-03
            1712            2078     891.798E-03     919.463E-03
            1713            2079     792.316E-03     819.829E-03
            1728            2079     792.316E-03     819.829E-03
            1729            2079     792.316E-03     819.829E-03
            1712            2079     792.316E-03     819.829E-03
            1729            2080     693.463E-03     721.062E-03
            1714            2080     693.463E-03     721.062E-03
            1730            2080     693.463E-03     721.062E-03
            1713            2080     693.463E-03     721.062E-03
            1714            2081     595.655E-03     622.962E-03
            1715            2081     595.655E-03     622.962E-03
            1731            2081     595.655E-03     622.962E-03
            1730            2081     595.655E-03     622.962E-03
            1715            2082     499.341E-03     526.146E-03
            1716            2082     499.341E-03     526.146E-03
            1731            2082     499.341E-03     526.146E-03
            1732            2082     499.341E-03     526.146E-03
            1717            2083     405.774E-03     431.163E-03
            1716            2083     405.774E-03     431.163E-03
            1733            2083     405.774E-03     431.163E-03
            1732            2083     405.774E-03     431.163E-03
            1717            2084     315.950E-03     340.800E-03
            1734            2084     315.950E-03     340.800E-03
            1718            2084     315.950E-03     340.800E-03
            1733            2084     315.950E-03     340.800E-03
            1718            2085     233.619E-03     258.454E-03
            1735            2085     233.619E-03     258.454E-03
            1719            2085     233.619E-03     258.454E-03
            1734            2085     233.619E-03     258.454E-03
            1719            2086     168.290E-03     179.701E-03
            1736            2086     168.290E-03     179.701E-03
            1720            2086     168.290E-03     179.701E-03
            1735            2086     168.290E-03     179.701E-03
            1721            2087         1.53718         1.57707
            1737            2087         1.53718         1.57707
            1738            2087         1.53718         1.57707
            1722            2087         1.53718         1.57707
            1738            2088         1.38600         1.43575
            1739            2088         1.38600         1.43575
            1722            2088         1.38600         1.43575
            1723            2088         1.38600         1.43575
            1723            2089         1.27093         1.32270
            1740            2089         1.27093         1.32270
            1724            2089         1.27093         1.32270
            1739            2089         1.27093         1.32270
            1741            2090         1.16966         1.22147
            1740            2090         1.16966         1.22147
            1724            2090         1.16966         1.22147
            1725            2090         1.16966         1.22147
            1725            2091         1.06863         1.12132
            1741            2091         1.06863         1.12132
            1742            2091         1.06863         1.12132
            1726            2091         1.06863         1.12132
            1742            2092     968.105E-03         1.02193
            1743            2092     968.105E-03         1.02193
            1726            2092     968.105E-03         1.02193
            1727            2092     968.105E-03         1.02193
            1743            2093     867.567E-03     921.929E-03
            1728            2093     867.567E-03     921.929E-03
            1727            2093     867.567E-03     921.929E-03
            1744            2093     867.567E-03     921.929E-03
            1728            2094     766.939E-03     822.369E-03
            1745            2094     766.939E-03     822.369E-03
            1744            2094     766.939E-03     822.369E-03
            1729            2094     766.939E-03     822.369E-03
            1729            2095     666.649E-03     722.644E-03
            1745            2095     666.649E-03     722.644E-03
            1730            2095     666.649E-03     722.644E-03
            1746            2095     666.649E-03     722.644E-03
            1731            2096     566.518E-03     623.406E-03
            1747            2096     566.518E-03     623.406E-03
            1746            2096     566.518E-03     623.406E-03
            1730            2096     566.518E-03     623.406E-03
            1731            2097     467.144E-03     524.657E-03
            1732            2097     467.144E-03     524.657E-03
            1748            2097     467.144E-03     524.657E-03
            1747            2097     467.144E-03     524.657E-03
            1733            2098     368.936E-03     426.645E-03
            1748            2098     368.936E-03     426.645E-03
            1749            2098     368.936E-03     426.645E-03
            1732            2098     368.936E-03     426.645E-03
            1734            2099     273.310E-03     330.260E-03
            1750            2099     273.310E-03     330.260E-03
            1749            2099     273.310E-03     330.260E-03
            1733            2099     273.310E-03     330.260E-03
            1750            2100     182.671E-03     232.938E-03
            1751            2100     182.671E-03     232.938E-03
            1735            2100     182.671E-03     232.938E-03
            1734            2100     182.671E-03     232.938E-03
            1751            2101     111.872E-03     123.592E-03
            1752            2101     111.872E-03     123.592E-03
            1735            2101     111.872E-03     123.592E-03
            1736            2101     111.872E-03     123.592E-03
            2369            2543     933.515E-03     994.330E-03
            2370            2543     933.515E-03     994.330E-03
            2386            2543     933.515E-03     994.330E-03
            2385            2543     933.515E-03     994.330E-03
            2387            2544     823.344E-03     891.980E-03
            2370            2544     823.344E-03     891.980E-03
            2386            2544     823.344E-03     891.980E-03
            2371            2544     823.344E-03     891.980E-03
            2371            2545     759.158E-03     828.631E-03
            2372            2545     759.158E-03     828.631E-03
            2388            2545     759.158E-03     828.631E-03
            2387            2545     759.158E-03     828.631E-03
            2372            2546     700.909E-03     769.392E-03
            2389            2546     700.909E-03     769.392E-03
            2373            2546     700.909E-03     769.392E-03
            2388            2546     700.909E-03     769.392E-03
            2389            2547     640.768E-03     708.942E-03
            2374            2547     640.768E-03     708.942E-03
            2373            2547     640.768E-03     708.942E-03
            2390            2547     640.768E-03     708.942E-03
            2375            2548     581.651E-03     649.994E-03
            2391            2548     581.651E-03     649.994E-03
            2374            2548     581.651E-03     649.994E-03
            2390            2548     581.651E-03     649.994E-03
            2392            2549     523.261E-03     590.732E-03
            2391            2549     523.261E-03     590.732E-03
            2375            2549     523.261E-03     590.732E-03
            2376            2549     523.261E-03     590.732E-03
            2376            2550     465.390E-03     532.568E-03
            2377            2550     465.390E-03     532.568E-03
            2392            2550     465.390E-03     532.568E-03
            2393            2550     465.390E-03     532.568E-03
            2378            2551     408.754E-03     474.687E-03
            2393            2551     408.754E-03     474.687E-03
            2394            2551     408.754E-03     474.687E-03
            2377            2551     408.754E-03     474.687E-03
            2378            2552     353.372E-03     418.101E-03
            2394            2552     353.372E-03     418.101E-03
            2395            2552     353.372E-03     418.101E-03
            2379            2552     353.372E-03     418.101E-03
            2396            2553     300.476E-03     362.720E-03
            2379            2553     300.476E-03     362.720E-03
            2380            2553     300.476E-03     362.720E-03
            2395            2553     300.476E-03     362.720E-03
            2380            2554     251.155E-03     309.802E-03
            2381            2554     251.155E-03     309.802E-03
            2396            2554     251.155E-03     309.802E-03
            2397            2554     251.155E-03     309.802E-03
            2398            2555     208.760E-03     260.341E-03
            2397            2555     208.760E-03     260.341E-03
            2382            2555     208.760E-03     260.341E-03
            2381            2555     208.760E-03     260.341E-03
            2383            2556     181.152E-03     220.159E-03
            2398            2556     181.152E-03     220.159E-03
            2399            2556     181.152E-03     220.159E-03
            2382            2556     181.152E-03     220.159E-03
            2399            2557     170.974E-03     183.558E-03
            2400            2557     170.974E-03     183.558E-03
            2383            2557     170.974E-03     183.558E-03
            2384            2557     170.974E-03     183.558E-03
            2385            2558     879.148E-03     834.614E-03
            2402            2558     879.148E-03     834.614E-03
            2401            2558     879.148E-03     834.614E-03
            2386            2558     879.148E-03     834.614E-03
            2403            2559     878.833E-03     843.225E-03
            2402            2559     878.833E-03     843.225E-03
            2386            2559     878.833E-03     843.225E-03
            2387            2559     878.833E-03     843.225E-03
            2388            2560     816.870E-03     781.744E-03
            2387            2560     816.870E-03     781.744E-03
            2403            2560     816.870E-03     781.744E-03
            2404            2560     816.870E-03     781.744E-03
            2388            2561     758.622E-03     722.711E-03
            2404            2561     758.622E-03     722.711E-03
            2389            2561     758.622E-03     722.711E-03
            2405            2561     758.622E-03     722.711E-03
            2406            2562     700.597E-03     665.852E-03
            2405            2562     700.597E-03     665.852E-03
            2389            2562     700.597E-03     665.852E-03
            2390            2562     700.597E-03     665.852E-03
            2390            2563     643.210E-03     608.449E-03
            2407            2563     643.210E-03     608.449E-03
            2406            2563     643.210E-03     608.449E-03
            2391            2563     643.210E-03     608.449E-03
            2408            2564     585.524E-03     551.686E-03
            2391            2564     585.524E-03     551.686E-03
            2407            2564     585.524E-03     551.686E-03
            2392            2564     585.524E-03     551.686E-03
            2408            2565     528.802E-03     495.402E-03
            2409            2565     528.802E-03     495.402E-03
            2392            2565     528.802E-03     495.402E-03
            2393            2565     528.802E-03     495.402E-03
            2410            2566     472.755E-03     440.542E-03
            2409            2566     472.755E-03     440.542E-03
            2393            2566     472.755E-03     440.542E-03
            2394            2566     472.755E-03     440.542E-03
            2411            2567     418.242E-03     387.255E-03
            2410            2567     418.242E-03     387.255E-03
            2395            2567     418.242E-03     387.255E-03
            2394            2567     418.242E-03     387.255E-03
            2411            2568     365.629E-03     336.780E-03
            2412            2568     365.629E-03     336.780E-03
            2396            2568     365.629E-03     336.780E-03
            2395            2568     365.629E-03     336.780E-03
            2413            2569     316.010E-03     290.149E-03
            2396            2569     316.010E-03     290.149E-03
            2412            2569     316.010E-03     290.149E-03
            2397            2569     316.010E-03     290.149E-03
            2413            2570     271.654E-03     249.309E-03
            2414            2570     271.654E-03     249.309E-03
            2397            2570     271.654E-03     249.309E-03
            2398            2570     271.654E-03     249.309E-03
            2415            2571     235.129E-03     220.195E-03
            2414            2571     235.129E-03     220.195E-03
            2399            2571     235.129E-03     220.195E-03
            2398            2571     235.129E-03     220.195E-03
            2415            2572     208.185E-03     203.713E-03
            2416            2572     208.185E-03     203.713E-03
            2399            2572     208.185E-03     203.713E-03
            2400            2572     208.185E-03     203.713E-03
            2402            2573     759.712E-03     775.470E-03
            2417            2573     759.712E-03     775.470E-03
            2418            2573     759.712E-03     775.470E-03
            2401            2573     759.712E-03     775.470E-03
            2418            2574     687.588E-03     678.985E-03
            2403            2574     687.588E-03     678.985E-03
            2402            2574     687.588E-03     678.985E-03
            2419            2574     687.588E-03     678.985E-03
            2403            2575     624.175E-03     610.271E-03
            2420            2575     624.175E-03     610.271E-03
            2404            2575     624.175E-03     610.271E-03
            2419            2575     624.175E-03     610.271E-03
            2421            2576     569.644E-03     556.718E-03
            2405            2576     569.644E-03     556.718E-03
            2404            2576     569.644E-03     556.718E-03
            2420            2576     569.644E-03     556.718E-03
            2421            2577     526.604E-03     513.738E-03
            2406            2577     526.604E-03     513.738E-03
            2422            2577     526.604E-03     513.738E-03
            2405            2577     526.604E-03     513.738E-03
            2406            2578     485.359E-03     472.209E-03
            2423            2578     485.359E-03     472.209E-03
            2422            2578     485.359E-03     472.209E-03
            2407            2578     485.359E-03     472.209E-03
            2407            2579     445.094E-03     432.168E-03
            2408            2579     445.094E-03     432.168E-03
            2424            2579     445.094E-03     432.168E-03
            2423            2579     445.094E-03     432.168E-03
            2408            2580     405.559E-03     392.327E-03
            2424            2580     405.559E-03     392.327E-03
            2409            2580     405.559E-03     392.327E-03
            2425            2580     405.559E-03     392.327E-03
            2409            2581     366.711E-03     353.619E-03
            2426            2581     366.711E-03     353.619E-03
            2410            2581     366.711E-03     353.619E-03
            2425            2581     366.711E-03     353.619E-03
            2427            2582     329.500E-03     316.164E-03
            2426            2582     329.500E-03     316.164E-03
            2411            2582     329.500E-03     316.164E-03
            2410            2582     329.500E-03     316.164E-03
            2411            2583     293.981E-03     280.695E-03
            2412            2583     293.981E-03     280.695E-03
            2428            2583     293.981E-03     280.695E-03
            2427            2583     293.981E-03     280.695E-03
            2412            2584     261.559E-03     248.493E-03
            2428            2584     261.559E-03     248.493E-03
            2413            2584     261.559E-03     248.493E-03
            2429            2584     261.559E-03     248.493E-03
            2430            2585     232.633E-03     220.334E-03
            2429            2585     232.633E-03     220.334E-03
            2414            2585     232.633E-03     220.334E-03
            2413            2585     232.633E-03     220.334E-03
            2415            2586     208.070E-03     200.733E-03
            2414            2586     208.070E-03     200.733E-03
            2431            2586     208.070E-03     200.733E-03
            2430            2586     208.070E-03     200.733E-03
            2416            2587     181.984E-03     186.314E-03
            2415            2587     181.984E-03     186.314E-03
            2431            2587     181.984E-03     186.314E-03
            2432            2587     181.984E-03     186.314E-03
            2433            2588     695.933E-03     741.960E-03
            2434            2588     695.933E-03     741.960E-03
            2418            2588     695.933E-03     741.960E-03
            2417            2588     695.933E-03     741.960E-03
            2418            2589     498.176E-03     552.468E-03
            2434            2589     498.176E-03     552.468E-03
            2419            2589     498.176E-03     552.468E-03
            2435            2589     498.176E-03     552.468E-03
            2435            2590     409.704E-03     463.174E-03
            2420            2590     409.704E-03     463.174E-03
            2419            2590     409.704E-03     463.174E-03
            2436            2590     409.704E-03     463.174E-03
            2421            2591     365.585E-03     417.689E-03
            2436            2591     365.585E-03     417.689E-03
            2420            2591     365.585E-03     417.689E-03
            2437            2591     365.585E-03     417.689E-03
            2438            2592     333.536E-03     384.909E-03
            2437            2592     333.536E-03     384.909E-03
            2421            2592     333.536E-03     384.909E-03
            2422            2592     333.536E-03     384.909E-03
            2438            2593     308.299E-03     358.385E-03
            2422            2593     308.299E-03     358.385E-03
            2423            2593     308.299E-03     358.385E-03
            2439            2593     308.299E-03     358.385E-03
            2423            2594     284.039E-03     332.762E-03
            2424            2594     284.039E-03     332.762E-03
            2440            2594     284.039E-03     332.762E-03
            2439            2594     284.039E-03     332.762E-03
            2424            2595     261.030E-03     308.170E-03
            2425            2595     261.030E-03     308.170E-03
            2441            2595     261.030E-03     308.170E-03
            2440            2595     261.030E-03     308.170E-03
            2426            2596     238.979E-03     283.860E-03
            2425            2596     238.979E-03     283.860E-03
            2441            2596     238.979E-03     283.860E-03
            2442            2596     238.979E-03     283.860E-03
            2427            2597     218.530E-03     260.509E-03
            2426            2597     218.530E-03     260.509E-03
            2442            2597     218.530E-03     260.509E-03
            2443            2597     218.530E-03     260.509E-03
            2428            2598     200.288E-03     238.051E-03
            2444            2598     200.288E-03     238.051E-03
            2443            2598     200.288E-03     238.051E-03
            2427            2598     200.288E-03     238.051E-03
            2428            2599     184.983E-03     216.928E-03
            2444            2599     184.983E-03     216.928E-03
            2429            2599     184.983E-03     216.928E-03
            2445            2599     184.983E-03     216.928E-03
            2430            2600     172.634E-03     197.547E-03
            2445            2600     172.634E-03     197.547E-03
            2429            2600     172.634E-03     197.547E-03
            2446            2600     172.634E-03     197.547E-03
            2430            2601     163.666E-03     182.138E-03
            2446            2601     163.666E-03     182.138E-03
            2447            2601     163.666E-03     182.138E-03
            2431            2601     163.666E-03     182.138E-03
            2432            2602     158.002E-03     168.999E-03
            2448            2602     158.002E-03     168.999E-03
            2447            2602     158.002E-03     168.999E-03
            2431            2602     158.002E-03     168.999E-03
            2449            2603     633.835E-03     637.842E-03
            2433            2603     633.835E-03     637.842E-03
            2450            2603     633.835E-03     637.842E-03
            2434            2603     633.835E-03     637.842E-03
            2451            2604     505.381E-03     529.386E-03
            2450            2604     505.381E-03     529.386E-03
            2435            2604     505.381E-03     529.386E-03
            2434            2604     505.381E-03     529.386E-03
            2451            2605     425.050E-03     459.595E-03
            2436            2605     425.050E-03     459.595E-03
            2452            2605     425.050E-03     459.595E-03
            2435            2605     425.050E-03     459.595E-03
            2436            2606     385.418E-03     421.180E-03
            2437            2606     385.418E-03     421.180E-03
            2453            2606     385.418E-03     421.180E-03
            2452            2606     385.418E-03     421.180E-03
            2438            2607     356.849E-03     390.626E-03
            2454            2607     356.849E-03     390.626E-03
            2437            2607     356.849E-03     390.626E-03
            2453            2607     356.849E-03     390.626E-03
            2454            2608     330.042E-03     362.664E-03
            2438            2608     330.042E-03     362.664E-03
            2439            2608     330.042E-03     362.664E-03
            2455            2608     330.042E-03     362.664E-03
            2455            2609     305.182E-03     336.485E-03
            2456            2609     305.182E-03     336.485E-03
            2439            2609     305.182E-03     336.485E-03
            2440            2609     305.182E-03     336.485E-03
            2440            2610     281.242E-03     311.248E-03
            2441            2610     281.242E-03     311.248E-03
            2456            2610     281.242E-03     311.248E-03
            2457            2610     281.242E-03     311.248E-03
            2458            2611     258.952E-03     287.370E-03
            2441            2611     258.952E-03     287.370E-03
            2442            2611     258.952E-03     287.370E-03
            2457            2611     258.952E-03     287.370E-03
            2458            2612     238.440E-03     264.719E-03
            2442            2612     238.440E-03     264.719E-03
            2459            2612     238.440E-03     264.719E-03
            2443            2612     238.440E-03     264.719E-03
            2459            2613     220.390E-03     243.970E-03
            2460            2613     220.390E-03     243.970E-03
            2443            2613     220.390E-03     243.970E-03
            2444            2613     220.390E-03     243.970E-03
            2460            2614     205.456E-03     224.609E-03
            2445            2614     205.456E-03     224.609E-03
            2461            2614     205.456E-03     224.609E-03
            2444            2614     205.456E-03     224.609E-03
            2446            2615     193.507E-03     207.378E-03
            2461            2615     193.507E-03     207.378E-03
            2462            2615     193.507E-03     207.378E-03
            2445            2615     193.507E-03     207.378E-03
            2446            2616     185.777E-03     191.445E-03
            2462            2616     185.777E-03     191.445E-03
            2447            2616     185.777E-03     191.445E-03
            2463            2616     185.777E-03     191.445E-03
            2464            2617     182.778E-03     171.940E-03
            2447            2617     182.778E-03     171.940E-03
            2448            2617     182.778E-03     171.940E-03
            2463            2617     182.778E-03     171.940E-03
            2450            2618     519.002E-03     532.821E-03
            2465            2618     519.002E-03     532.821E-03
            2466            2618     519.002E-03     532.821E-03
            2449            2618     519.002E-03     532.821E-03
            2467            2619     460.039E-03     474.923E-03
            2466            2619     460.039E-03     474.923E-03
            2450            2619     460.039E-03     474.923E-03
            2451            2619     460.039E-03     474.923E-03
            2467            2620     429.456E-03     448.375E-03
            2451            2620     429.456E-03     448.375E-03
            2452            2620     429.456E-03     448.375E-03
            2468            2620     429.456E-03     448.375E-03
            2469            2621     403.071E-03     421.511E-03
            2452            2621     403.071E-03     421.511E-03
            2468            2621     403.071E-03     421.511E-03
            2453            2621     403.071E-03     421.511E-03
            2470            2622     377.431E-03     394.095E-03
            2453            2622     377.431E-03     394.095E-03
            2469            2622     377.431E-03     394.095E-03
            2454            2622     377.431E-03     394.095E-03
            2454            2623     350.313E-03     365.737E-03
            2455            2623     350.313E-03     365.737E-03
            2471            2623     350.313E-03     365.737E-03
            2470            2623     350.313E-03     365.737E-03
            2471            2624     324.268E-03     338.927E-03
            2472            2624     324.268E-03     338.927E-03
            2455            2624     324.268E-03     338.927E-03
            2456            2624     324.268E-03     338.927E-03
            2456            2625     299.839E-03     313.639E-03
            2457            2625     299.839E-03     313.639E-03
            2473            2625     299.839E-03     313.639E-03
            2472            2625     299.839E-03     313.639E-03
            2458            2626     277.257E-03     290.230E-03
            2457            2626     277.257E-03     290.230E-03
            2474            2626     277.257E-03     290.230E-03
            2473            2626     277.257E-03     290.230E-03
            2459            2627     256.966E-03     268.923E-03
            2475            2627     256.966E-03     268.923E-03
            2458            2627     256.966E-03     268.923E-03
            2474            2627     256.966E-03     268.923E-03
            2460            2628     239.079E-03     249.681E-03
            2459            2628     239.079E-03     249.681E-03
            2475            2628     239.079E-03     249.681E-03
            2476            2628     239.079E-03     249.681E-03
            2460            2629     224.046E-03     233.116E-03
            2476            2629     224.046E-03     233.116E-03
            2477            2629     224.046E-03     233.116E-03
            2461            2629     224.046E-03     233.116E-03
            2462            2630     213.363E-03     217.322E-03
            2478            2630     213.363E-03     217.322E-03
            2461            2630     213.363E-03     217.322E-03
            2477            2630     213.363E-03     217.322E-03
            2478            2631     206.752E-03     199.009E-03
            2462            2631     206.752E-03     199.009E-03
            2479            2631     206.752E-03     199.009E-03
            2463            2631     206.752E-03     199.009E-03
            2480            2632     201.108E-03     181.913E-03
            2464            2632     201.108E-03     181.913E-03
            2463            2632     201.108E-03     181.913E-03
            2479            2632     201.108E-03     181.913E-03
            2481            2633     411.951E-03     413.391E-03
            2465            2633     411.951E-03     413.391E-03
            2466            2633     411.951E-03     413.391E-03
            2482            2633     411.951E-03     413.391E-03
            2467            2634     392.947E-03     405.796E-03
            2482            2634     392.947E-03     405.796E-03
            2466            2634     392.947E-03     405.796E-03
            2483            2634     392.947E-03     405.796E-03
            2483            2635     415.622E-03     421.094E-03
            2484            2635     415.622E-03     421.094E-03
            2468            2635     415.622E-03     421.094E-03
            2467            2635     415.622E-03     421.094E-03
            2468            2636     412.173E-03     411.691E-03
            2469            2636     412.173E-03     411.691E-03
            2485            2636     412.173E-03     411.691E-03
            2484            2636     412.173E-03     411.691E-03
            2485            2637     389.489E-03     388.533E-03
            2470            2637     389.489E-03     388.533E-03
            2486            2637     389.489E-03     388.533E-03
            2469            2637     389.489E-03     388.533E-03
            2487            2638     364.896E-03     363.259E-03
            2471            2638     364.896E-03     363.259E-03
            2486            2638     364.896E-03     363.259E-03
            2470            2638     364.896E-03     363.259E-03
            2471            2639     339.335E-03     337.625E-03
            2472            2639     339.335E-03     337.625E-03
            2488            2639     339.335E-03     337.625E-03
            2487            2639     339.335E-03     337.625E-03
            2489            2640     315.591E-03     313.920E-03
            2473            2640     315.591E-03     313.920E-03
            2472            2640     315.591E-03     313.920E-03
            2488            2640     315.591E-03     313.920E-03
            2473            2641     293.732E-03     292.128E-03
            2489            2641     293.732E-03     292.128E-03
            2490            2641     293.732E-03     292.128E-03
            2474            2641     293.732E-03     292.128E-03
            2474            2642     274.007E-03     272.631E-03
            2475            2642     274.007E-03     272.631E-03
            2491            2642     274.007E-03     272.631E-03
            2490            2642     274.007E-03     272.631E-03
            2475            2643     256.631E-03     255.577E-03
            2491            2643     256.631E-03     255.577E-03
            2492            2643     256.631E-03     255.577E-03
            2476            2643     256.631E-03     255.577E-03
            2492            2644     241.567E-03     241.203E-03
            2493            2644     241.567E-03     241.203E-03
            2477            2644     241.567E-03     241.203E-03
            2476            2644     241.567E-03     241.203E-03
            2478            2645     229.824E-03     228.968E-03
            2494            2645     229.824E-03     228.968E-03
            2493            2645     229.824E-03     228.968E-03
            2477            2645     229.824E-03     228.968E-03
            2479            2646     222.751E-03     214.934E-03
            2494            2646     222.751E-03     214.934E-03
            2495            2646     222.751E-03     214.934E-03
            2478            2646     222.751E-03     214.934E-03
            2495            2647     216.989E-03     198.226E-03
            2496            2647     216.989E-03     198.226E-03
            2480            2647     216.989E-03     198.226E-03
            2479            2647     216.989E-03     198.226E-03
            2481            2648     305.158E-03     301.738E-03
            2482            2648     305.158E-03     301.738E-03
            2497            2648     305.158E-03     301.738E-03
            2498            2648     305.158E-03     301.738E-03
            2482            2649     342.253E-03     334.428E-03
            2499            2649     342.253E-03     334.428E-03
            2483            2649     342.253E-03     334.428E-03
            2498            2649     342.253E-03     334.428E-03
            2500            2650     397.720E-03     380.455E-03
            2483            2650     397.720E-03     380.455E-03
            2499            2650     397.720E-03     380.455E-03
            2484            2650     397.720E-03     380.455E-03
            2484            2651     404.128E-03     384.625E-03
            2500            2651     404.128E-03     384.625E-03
            2485            2651     404.128E-03     384.625E-03
            2501            2651     404.128E-03     384.625E-03
            2485            2652     391.944E-03     372.142E-03
            2502            2652     391.944E-03     372.142E-03
            2501            2652     391.944E-03     372.142E-03
            2486            2652     391.944E-03     372.142E-03
            2487            2653     371.286E-03     352.615E-03
            2503            2653     371.286E-03     352.615E-03
            2502            2653     371.286E-03     352.615E-03
            2486            2653     371.286E-03     352.615E-03
            2487            2654     349.814E-03     332.108E-03
            2488            2654     349.814E-03     332.108E-03
            2504            2654     349.814E-03     332.108E-03
            2503            2654     349.814E-03     332.108E-03
            2504            2655     328.468E-03     311.950E-03
            2505            2655     328.468E-03     311.950E-03
            2489            2655     328.468E-03     311.950E-03
            2488            2655     328.468E-03     311.950E-03
            2489            2656     308.572E-03     293.337E-03
            2505            2656     308.572E-03     293.337E-03
            2506            2656     308.572E-03     293.337E-03
            2490            2656     308.572E-03     293.337E-03
            2490            2657     290.189E-03     276.439E-03
            2506            2657     290.189E-03     276.439E-03
            2491            2657     290.189E-03     276.439E-03
            2507            2657     290.189E-03     276.439E-03
            2491            2658     273.539E-03     261.868E-03
            2508            2658     273.539E-03     261.868E-03
            2492            2658     273.539E-03     261.868E-03
            2507            2658     273.539E-03     261.868E-03
            2508            2659     258.878E-03     249.451E-03
            2492            2659     258.878E-03     249.451E-03
            2493            2659     258.878E-03     249.451E-03
            2509            2659     258.878E-03     249.451E-03
            2494            2660     245.058E-03     240.849E-03
            2510            2660     245.058E-03     240.849E-03
            2509            2660     245.058E-03     240.849E-03
            2493            2660     245.058E-03     240.849E-03
            2494            2661     233.860E-03     236.114E-03
            2495            2661     233.860E-03     236.114E-03
            2511            2661     233.860E-03     236.114E-03
            2510            2661     233.860E-03     236.114E-03
            2496            2662     230.043E-03     225.070E-03
            2511            2662     230.043E-03     225.070E-03
            2495            2662     230.043E-03     225.070E-03
            2512            2662     230.043E-03     225.070E-03
            2513            2663     231.423E-03     222.507E-03
            2514            2663     231.423E-03     222.507E-03
            2497            2663     231.423E-03     222.507E-03
            2498            2663     231.423E-03     222.507E-03
            2498            2664     307.560E-03     261.771E-03
            2515            2664     307.560E-03     261.771E-03
            2499            2664     307.560E-03     261.771E-03
            2514            2664     307.560E-03     261.771E-03
            2499            2665     367.466E-03     322.512E-03
            2515            2665     367.466E-03     322.512E-03
            2500            2665     367.466E-03     322.512E-03
            2516            2665     367.466E-03     322.512E-03
            2501            2666     384.764E-03     343.941E-03
            2500            2666     384.764E-03     343.941E-03
            2516            2666     384.764E-03     343.941E-03
            2517            2666     384.764E-03     343.941E-03
            2502            2667     383.662E-03     345.786E-03
            2501            2667     383.662E-03     345.786E-03
            2517            2667     383.662E-03     345.786E-03
            2518            2667     383.662E-03     345.786E-03
            2519            2668     372.524E-03     337.079E-03
            2518            2668     372.524E-03     337.079E-03
            2502            2668     372.524E-03     337.079E-03
            2503            2668     372.524E-03     337.079E-03
            2520            2669     356.979E-03     324.231E-03
            2503            2669     356.979E-03     324.231E-03
            2504            2669     356.979E-03     324.231E-03
            2519            2669     356.979E-03     324.231E-03
            2504            2670     340.104E-03     309.698E-03
            2505            2670     340.104E-03     309.698E-03
            2520            2670     340.104E-03     309.698E-03
            2521            2670     340.104E-03     309.698E-03
            2522            2671     322.880E-03     295.202E-03
            2506            2671     322.880E-03     295.202E-03
            2505            2671     322.880E-03     295.202E-03
            2521            2671     322.880E-03     295.202E-03
            2507            2672     306.378E-03     281.597E-03
            2522            2672     306.378E-03     281.597E-03
            2523            2672     306.378E-03     281.597E-03
            2506            2672     306.378E-03     281.597E-03
            2508            2673     290.728E-03     269.318E-03
            2524            2673     290.728E-03     269.318E-03
            2507            2673     290.728E-03     269.318E-03
            2523            2673     290.728E-03     269.318E-03
            2525            2674     276.402E-03     259.194E-03
            2524            2674     276.402E-03     259.194E-03
            2508            2674     276.402E-03     259.194E-03
            2509            2674     276.402E-03     259.194E-03
            2510            2675     262.808E-03     251.528E-03
            2525            2675     262.808E-03     251.528E-03
            2509            2675     262.808E-03     251.528E-03
            2526            2675     262.808E-03     251.528E-03
            2511            2676     248.808E-03     249.804E-03
            2526            2676     248.808E-03     249.804E-03
            2510            2676     248.808E-03     249.804E-03
            2527            2676     248.808E-03     249.804E-03
            2512            2677     235.123E-03     253.544E-03
            2527            2677     235.123E-03     253.544E-03
            2528            2677     235.123E-03     253.544E-03
            2511            2677     235.123E-03     253.544E-03
            2513            2678     124.601E-03     118.938E-03
            2530            2678     124.601E-03     118.938E-03
            2529            2678     124.601E-03     118.938E-03
            2514            2678     124.601E-03     118.938E-03
            2515            2679     165.568E-03     131.513E-03
            2530            2679     165.568E-03     131.513E-03
            2514            2679     165.568E-03     131.513E-03
            2531            2679     165.568E-03     131.513E-03
            2532            2680     190.661E-03     162.122E-03
            2515            2680     190.661E-03     162.122E-03
            2516            2680     190.661E-03     162.122E-03
            2531            2680     190.661E-03     162.122E-03
            2533            2681     203.018E-03     177.668E-03
            2516            2681     203.018E-03     177.668E-03
            2532            2681     203.018E-03     177.668E-03
            2517            2681     203.018E-03     177.668E-03
            2518            2682     203.621E-03     180.782E-03
            2533            2682     203.621E-03     180.782E-03
            2517            2682     203.621E-03     180.782E-03
            2534            2682     203.621E-03     180.782E-03
            2518            2683     199.809E-03     178.719E-03
            2535            2683     199.809E-03     178.719E-03
            2534            2683     199.809E-03     178.719E-03
            2519            2683     199.809E-03     178.719E-03
            2535            2684     192.507E-03     173.080E-03
            2520            2684     192.507E-03     173.080E-03
            2519            2684     192.507E-03     173.080E-03
            2536            2684     192.507E-03     173.080E-03
            2520            2685     183.988E-03     166.118E-03
            2521            2685     183.988E-03     166.118E-03
            2537            2685     183.988E-03     166.118E-03
            2536            2685     183.988E-03     166.118E-03
            2538            2686     174.874E-03     158.767E-03
            2522            2686     174.874E-03     158.767E-03
            2537            2686     174.874E-03     158.767E-03
            2521            2686     174.874E-03     158.767E-03
            2539            2687     165.812E-03     151.512E-03
            2522            2687     165.812E-03     151.512E-03
            2538            2687     165.812E-03     151.512E-03
            2523            2687     165.812E-03     151.512E-03
            2540            2688     156.990E-03     144.761E-03
            2539            2688     156.990E-03     144.761E-03
            2524            2688     156.990E-03     144.761E-03
            2523            2688     156.990E-03     144.761E-03
            2524            2689     148.760E-03     139.083E-03
            2541            2689     148.760E-03     139.083E-03
            2525            2689     148.760E-03     139.083E-03
            2540            2689     148.760E-03     139.083E-03
            2541            2690     140.898E-03     133.909E-03
            2542            2690     140.898E-03     133.909E-03
            2526            2690     140.898E-03     133.909E-03
            2525            2690     140.898E-03     133.909E-03
            2527            2691     133.491E-03     131.770E-03
            2526            2691     133.491E-03     131.770E-03
            2542            2691     133.491E-03     131.770E-03
            2543            2691     133.491E-03     131.770E-03
            2544            2692     121.495E-03     134.178E-03
            2527            2692     121.495E-03     134.178E-03
            2528            2692     121.495E-03     134.178E-03
            2543            2692     121.495E-03     134.178E-03
            2658            2768         1.41618         1.44602
            2641            2768         1.41618         1.44602
            2657            2768         1.41618         1.44602
            2642            2768         1.41618         1.44602
            2642            2769         1.33033         1.35586
            2643            2769         1.33033         1.35586
            2659            2769         1.33033         1.35586
            2658            2769         1.33033         1.35586
            2659            2770         1.23318         1.25867
            2644            2770         1.23318         1.25867
            2660            2770         1.23318         1.25867
            2643            2770         1.23318         1.25867
            2661            2771         1.13671         1.16477
            2660            2771         1.13671         1.16477
            2645            2771         1.13671         1.16477
            2644            2771         1.13671         1.16477
            2646            2772         1.04221         1.06754
            2661            2772         1.04221         1.06754
            2662            2772         1.04221         1.06754
            2645            2772         1.04221         1.06754
            2646            2773     945.603E-03     973.304E-03
            2662            2773     945.603E-03     973.304E-03
            2663            2773     945.603E-03     973.304E-03
            2647            2773     945.603E-03     973.304E-03
            2664            2774     851.328E-03     877.454E-03
            2648            2774     851.328E-03     877.454E-03
            2647            2774     851.328E-03     877.454E-03
            2663            2774     851.328E-03     877.454E-03
            2665            2775     756.238E-03     783.517E-03
            2648            2775     756.238E-03     783.517E-03
            2664            2775     756.238E-03     783.517E-03
            2649            2775     756.238E-03     783.517E-03
            2649            2776     662.678E-03     689.476E-03
            2665            2776     662.678E-03     689.476E-03
            2650            2776     662.678E-03     689.476E-03
            2666            2776     662.678E-03     689.476E-03
            2667            2777     569.726E-03     596.997E-03
            2650            2777     569.726E-03     596.997E-03
            2666            2777     569.726E-03     596.997E-03
            2651            2777     569.726E-03     596.997E-03
            2668            2778     478.655E-03     506.024E-03
            2667            2778     478.655E-03     506.024E-03
            2652            2778     478.655E-03     506.024E-03
            2651            2778     478.655E-03     506.024E-03
            2653            2779     390.500E-03     418.097E-03
            2669            2779     390.500E-03     418.097E-03
            2652            2779     390.500E-03     418.097E-03
            2668            2779     390.500E-03     418.097E-03
            2670            2780     308.239E-03     335.336E-03
            2653            2780     308.239E-03     335.336E-03
            2654            2780     308.239E-03     335.336E-03
            2669            2780     308.239E-03     335.336E-03
            2654            2781     240.020E-03     263.928E-03
            2671            2781     240.020E-03     263.928E-03
            2670            2781     240.020E-03     263.928E-03
            2655            2781     240.020E-03     263.928E-03
            2672            2782     198.190E-03     208.112E-03
            2671            2782     198.190E-03     208.112E-03
            2656            2782     198.190E-03     208.112E-03
            2655            2782     198.190E-03     208.112E-03
            2658            2783         1.33646         1.35514
            2657            2783         1.33646         1.35514
            2674            2783         1.33646         1.35514
            2673            2783         1.33646         1.35514
            2659            2784         1.23562         1.24396
            2674            2784         1.23562         1.24396
            2675            2784         1.23562         1.24396
            2658            2784         1.23562         1.24396
            2675            2785         1.14155         1.15028
            2676            2785         1.14155         1.15028
            2659            2785         1.14155         1.15028
            2660            2785         1.14155         1.15028
            2677            2786         1.05560         1.06682
            2676            2786         1.05560         1.06682
            2661            2786         1.05560         1.06682
            2660            2786         1.05560         1.06682
            2661            2787     968.459E-03     978.092E-03
            2662            2787     968.459E-03     978.092E-03
            2678            2787     968.459E-03     978.092E-03
            2677            2787     968.459E-03     978.092E-03
            2678            2788     879.794E-03     891.227E-03
            2663            2788     879.794E-03     891.227E-03
            2662            2788     879.794E-03     891.227E-03
            2679            2788     879.794E-03     891.227E-03
            2663            2789     792.994E-03     803.262E-03
            2680            2789     792.994E-03     803.262E-03
            2679            2789     792.994E-03     803.262E-03
            2664            2789     792.994E-03     803.262E-03
            2664            2790     705.470E-03     716.874E-03
            2665            2790     705.470E-03     716.874E-03
            2681            2790     705.470E-03     716.874E-03
            2680            2790     705.470E-03     716.874E-03
            2681            2791     619.415E-03     630.440E-03
            2666            2791     619.415E-03     630.440E-03
            2682            2791     619.415E-03     630.440E-03
            2665            2791     619.415E-03     630.440E-03
            2682            2792     533.876E-03     545.587E-03
            2666            2792     533.876E-03     545.587E-03
            2667            2792     533.876E-03     545.587E-03
            2683            2792     533.876E-03     545.587E-03
            2667            2793     450.256E-03     462.091E-03
            2684            2793     450.256E-03     462.091E-03
            2668            2793     450.256E-03     462.091E-03
            2683            2793     450.256E-03     462.091E-03
            2685            2794     369.240E-03     381.848E-03
            2669            2794     369.240E-03     381.848E-03
            2668            2794     369.240E-03     381.848E-03
            2684            2794     369.240E-03     381.848E-03
            2670            2795     293.379E-03     307.344E-03
            2686            2795     293.379E-03     307.344E-03
            2685            2795     293.379E-03     307.344E-03
            2669            2795     293.379E-03     307.344E-03
            2686            2796     231.294E-03     242.943E-03
            2671            2796     231.294E-03     242.943E-03
            2670            2796     231.294E-03     242.943E-03
            2687            2796     231.294E-03     242.943E-03
            2688            2797     183.577E-03     181.556E-03
            2672            2797     183.577E-03     181.556E-03
            2687            2797     183.577E-03     181.556E-03
            2671            2797     183.577E-03     181.556E-03
            2674            2798         1.24361         1.30425
            2690            2798         1.24361         1.30425
            2673            2798         1.24361         1.30425
            2689            2798         1.24361         1.30425
            2674            2799         1.10559         1.17552
            2691            2799         1.10559         1.17552
            2675            2799         1.10559         1.17552
            2690            2799         1.10559         1.17552
            2676            2800         1.01721         1.08811
            2675            2800         1.01721         1.08811
            2692            2800         1.01721         1.08811
            2691            2800         1.01721         1.08811
            2693            2801     937.928E-03         1.00798
            2676            2801     937.928E-03         1.00798
            2692            2801     937.928E-03         1.00798
            2677            2801     937.928E-03         1.00798
            2677            2802     856.702E-03     926.424E-03
            2694            2802     856.702E-03     926.424E-03
            2678            2802     856.702E-03     926.424E-03
            2693            2802     856.702E-03     926.424E-03
            2694            2803     776.187E-03     846.341E-03
            2679            2803     776.187E-03     846.341E-03
            2678            2803     776.187E-03     846.341E-03
            2695            2803     776.187E-03     846.341E-03
            2695            2804     696.306E-03     765.850E-03
            2696            2804     696.306E-03     765.850E-03
            2679            2804     696.306E-03     765.850E-03
            2680            2804     696.306E-03     765.850E-03
            2696            2805     616.740E-03     686.343E-03
            2681            2805     616.740E-03     686.343E-03
            2697            2805     616.740E-03     686.343E-03
            2680            2805     616.740E-03     686.343E-03
            2681            2806     538.182E-03     607.013E-03
            2697            2806     538.182E-03     607.013E-03
            2682            2806     538.182E-03     607.013E-03
            2698            2806     538.182E-03     607.013E-03
            2682            2807     460.505E-03     528.804E-03
            2699            2807     460.505E-03     528.804E-03
            2698            2807     460.505E-03     528.804E-03
            2683            2807     460.505E-03     528.804E-03
            2683            2808     384.780E-03     451.650E-03
            2700            2808     384.780E-03     451.650E-03
            2684            2808     384.780E-03     451.650E-03
            2699            2808     384.780E-03     451.650E-03
            2685            2809     311.977E-03     376.772E-03
            2684            2809     311.977E-03     376.772E-03
            2701            2809     311.977E-03     376.772E-03
            2700            2809     311.977E-03     376.772E-03
            2686            2810     245.917E-03     305.572E-03
            2702            2810     245.917E-03     305.572E-03
            2685            2810     245.917E-03     305.572E-03
            2701            2810     245.917E-03     305.572E-03
            2703            2811     196.403E-03     244.066E-03
            2702            2811     196.403E-03     244.066E-03
            2686            2811     196.403E-03     244.066E-03
            2687            2811     196.403E-03     244.066E-03
            2704            2812     172.077E-03     188.228E-03
            2687            2812     172.077E-03     188.228E-03
            2688            2812     172.077E-03     188.228E-03
            2703            2812     172.077E-03     188.228E-03
            2705            2813         1.17115         1.13575
            2689            2813         1.17115         1.13575
            2690            2813         1.17115         1.13575
            2706            2813         1.17115         1.13575
            2690            2814         1.14976         1.12438
            2706            2814         1.14976         1.12438
            2691            2814         1.14976         1.12438
            2707            2814         1.14976         1.12438
            2691            2815         1.07053         1.04543
            2707            2815         1.07053         1.04543
            2708            2815         1.07053         1.04543
            2692            2815         1.07053         1.04543
            2708            2816     991.963E-03     965.868E-03
            2692            2816     991.963E-03     965.868E-03
            2693            2816     991.963E-03     965.868E-03
            2709            2816     991.963E-03     965.868E-03
            2710            2817     913.121E-03     887.897E-03
            2709            2817     913.121E-03     887.897E-03
            2693            2817     913.121E-03     887.897E-03
            2694            2817     913.121E-03     887.897E-03
            2695            2818     835.136E-03     809.727E-03
            2710            2818     835.136E-03     809.727E-03
            2694            2818     835.136E-03     809.727E-03
            2711            2818     835.136E-03     809.727E-03
            2711            2819     756.692E-03     731.970E-03
            2712            2819     756.692E-03     731.970E-03
            2696            2819     756.692E-03     731.970E-03
            2695            2819     756.692E-03     731.970E-03
            2696            2820     679.103E-03     654.477E-03
            2712            2820     679.103E-03     654.477E-03
            2713            2820     679.103E-03     654.477E-03
            2697            2820     679.103E-03     654.477E-03
            2697            2821     602.087E-03     578.232E-03
            2713            2821     602.087E-03     578.232E-03
            2698            2821     602.087E-03     578.232E-03
            2714            2821     602.087E-03     578.232E-03
            2698            2822     526.571E-03     503.380E-03
            2699            2822     526.571E-03     503.380E-03
            2715            2822     526.571E-03     503.380E-03
            2714            2822     526.571E-03     503.380E-03
            2715            2823     452.976E-03     431.196E-03
            2699            2823     452.976E-03     431.196E-03
            2700            2823     452.976E-03     431.196E-03
            2716            2823     452.976E-03     431.196E-03
            2700            2824     382.707E-03     362.721E-03
            2716            2824     382.707E-03     362.721E-03
            2717            2824     382.707E-03     362.721E-03
            2701            2824     382.707E-03     362.721E-03
            2717            2825     318.656E-03     300.645E-03
            2701            2825     318.656E-03     300.645E-03
            2702            2825     318.656E-03     300.645E-03
            2718            2825     318.656E-03     300.645E-03
            2718            2826     264.048E-03     252.276E-03
            2702            2826     264.048E-03     252.276E-03
            2719            2826     264.048E-03     252.276E-03
            2703            2826     264.048E-03     252.276E-03
            2720            2827     223.752E-03     222.746E-03
            2704            2827     223.752E-03     222.746E-03
            2703            2827     223.752E-03     222.746E-03
            2719            2827     223.752E-03     222.746E-03
            2916            2952     280.423E-06     301.297E-06
            2931            2952     280.423E-06     301.297E-06
            2932            2952     280.423E-06     301.297E-06
            2915            2952     280.423E-06     301.297E-06
            2917            2953     212.671E-06     237.260E-06
            2932            2953     212.671E-06     237.260E-06
            2933            2953     212.671E-06     237.260E-06
            2916            2953     212.671E-06     237.260E-06
            2918            2954     189.810E-06     214.300E-06
            2934            2954     189.810E-06     214.300E-06
            2933            2954     189.810E-06     214.300E-06
            2917            2954     189.810E-06     214.300E-06
            2919            2955     182.990E-06     206.636E-06
            2918            2955     182.990E-06     206.636E-06
            2934            2955     182.990E-06     206.636E-06
            2935            2955     182.990E-06     206.636E-06
            2936            2956     177.282E-06     199.929E-06
            2919            2956     177.282E-06     199.929E-06
            2920            2956     177.282E-06     199.929E-06
            2935            2956     177.282E-06     199.929E-06
            2920            2957     171.804E-06     193.846E-06
            2921            2957     171.804E-06     193.846E-06
            2937            2957     171.804E-06     193.846E-06
            2936            2957     171.804E-06     193.846E-06
            2937            2958     166.177E-06     187.508E-06
            2921            2958     166.177E-06     187.508E-06
            2922            2958     166.177E-06     187.508E-06
            2938            2958     166.177E-06     187.508E-06
            2938            2959     161.104E-06     181.516E-06
            2922            2959     161.104E-06     181.516E-06
            2923            2959     161.104E-06     181.516E-06
            2939            2959     161.104E-06     181.516E-06
            2924            2960     156.525E-06     175.789E-06
            2923            2960     156.525E-06     175.789E-06
            2939            2960     156.525E-06     175.789E-06
            2940            2960     156.525E-06     175.789E-06
            2925            2961     152.875E-06     170.529E-06
            2924            2961     152.875E-06     170.529E-06
            2940            2961     152.875E-06     170.529E-06
            2941            2961     152.875E-06     170.529E-06
            2941            2962     149.963E-06     165.800E-06
            2926            2962     149.963E-06     165.800E-06
            2942            2962     149.963E-06     165.800E-06
            2925            2962     149.963E-06     165.800E-06
            2926            2963     148.150E-06     161.453E-06
            2927            2963     148.150E-06     161.453E-06
            2942            2963     148.150E-06     161.453E-06
            2943            2963     148.150E-06     161.453E-06
            2927            2964     146.848E-06     157.333E-06
            2943            2964     146.848E-06     157.333E-06
            2928            2964     146.848E-06     157.333E-06
            2944            2964     146.848E-06     157.333E-06
            2944            2965     144.772E-06     156.160E-06
            2929            2965     144.772E-06     156.160E-06
            2945            2965     144.772E-06     156.160E-06
            2928            2965     144.772E-06     156.160E-06
            2945            2966     144.222E-06     155.929E-06
            2929            2966     144.222E-06     155.929E-06
            2946            2966     144.222E-06     155.929E-06
            2930            2966     144.222E-06     155.929E-06
            2932            2967     235.075E-06     239.089E-06
            2948            2967     235.075E-06     239.089E-06
            2931            2967     235.075E-06     239.089E-06
            2947            2967     235.075E-06     239.089E-06
            2949            2968     213.201E-06     225.068E-06
            2948            2968     213.201E-06     225.068E-06
            2932            2968     213.201E-06     225.068E-06
            2933            2968     213.201E-06     225.068E-06
            2933            2969     201.605E-06     216.703E-06
            2949            2969     201.605E-06     216.703E-06
            2950            2969     201.605E-06     216.703E-06
            2934            2969     201.605E-06     216.703E-06
            2935            2970     195.841E-06     210.514E-06
            2934            2970     195.841E-06     210.514E-06
            2950            2970     195.841E-06     210.514E-06
            2951            2970     195.841E-06     210.514E-06
            2935            2971     189.112E-06     202.717E-06
            2951            2971     189.112E-06     202.717E-06
            2936            2971     189.112E-06     202.717E-06
            2952            2971     189.112E-06     202.717E-06
            2936            2972     181.555E-06     195.153E-06
            2953            2972     181.555E-06     195.153E-06
            2937            2972     181.555E-06     195.153E-06
            2952            2972     181.555E-06     195.153E-06
            2937            2973     175.244E-06     188.270E-06
            2953            2973     175.244E-06     188.270E-06
            2954            2973     175.244E-06     188.270E-06
            2938            2973     175.244E-06     188.270E-06
            2938            2974     169.437E-06     182.067E-06
            2954            2974     169.437E-06     182.067E-06
            2939            2974     169.437E-06     182.067E-06
            2955            2974     169.437E-06     182.067E-06
            2939            2975     164.659E-06     176.654E-06
            2940            2975     164.659E-06     176.654E-06
            2956            2975     164.659E-06     176.654E-06
            2955            2975     164.659E-06     176.654E-06
            2941            2976     160.672E-06     171.802E-06
            2956            2976     160.672E-06     171.802E-06
            2957            2976     160.672E-06     171.802E-06
            2940            2976     160.672E-06     171.802E-06
            2942            2977     157.452E-06     167.777E-06
            2941            2977     157.452E-06     167.777E-06
            2958            2977     157.452E-06     167.777E-06
            2957            2977     157.452E-06     167.777E-06
            2942            2978     155.269E-06     164.282E-06
            2959            2978     155.269E-06     164.282E-06
            2943            2978     155.269E-06     164.282E-06
            2958            2978     155.269E-06     164.282E-06
            2959            2979     154.149E-06     161.366E-06
            2943            2979     154.149E-06     161.366E-06
            2960            2979     154.149E-06     161.366E-06
            2944            2979     154.149E-06     161.366E-06
            2961            2980     154.745E-06     158.027E-06
            2945            2980     154.745E-06     158.027E-06
            2960            2980     154.745E-06     158.027E-06
            2944            2980     154.745E-06     158.027E-06
            2961            2981     160.133E-06     152.069E-06
            2945            2981     160.133E-06     152.069E-06
            2962            2981     160.133E-06     152.069E-06
            2946            2981     160.133E-06     152.069E-06
            2948            2982     167.589E-06     174.439E-06
            2963            2982     167.589E-06     174.439E-06
            2947            2982     167.589E-06     174.439E-06
            2964            2982     167.589E-06     174.439E-06
            2949            2983     187.361E-06     197.818E-06
            2964            2983     187.361E-06     197.818E-06
            2965            2983     187.361E-06     197.818E-06
            2948            2983     187.361E-06     197.818E-06
            2949            2984     207.126E-06     213.238E-06
            2965            2984     207.126E-06     213.238E-06
            2966            2984     207.126E-06     213.238E-06
            2950            2984     207.126E-06     213.238E-06
            2951            2985     205.318E-06     209.528E-06
            2966            2985     205.318E-06     209.528E-06
            2967            2985     205.318E-06     209.528E-06
            2950            2985     205.318E-06     209.528E-06
            2967            2986     197.773E-06     202.505E-06
            2968            2986     197.773E-06     202.505E-06
            2951            2986     197.773E-06     202.505E-06
            2952            2986     197.773E-06     202.505E-06
            2953            2987     190.460E-06     194.715E-06
            2969            2987     190.460E-06     194.715E-06
            2968            2987     190.460E-06     194.715E-06
            2952            2987     190.460E-06     194.715E-06
            2969            2988     183.449E-06     187.921E-06
            2970            2988     183.449E-06     187.921E-06
            2953            2988     183.449E-06     187.921E-06
            2954            2988     183.449E-06     187.921E-06
            2954            2989     177.805E-06     182.147E-06
            2970            2989     177.805E-06     182.147E-06
            2955            2989     177.805E-06     182.147E-06
            2971            2989     177.805E-06     182.147E-06
            2955            2990     172.939E-06     177.196E-06
            2956            2990     172.939E-06     177.196E-06
            2972            2990     172.939E-06     177.196E-06
            2971            2990     172.939E-06     177.196E-06
            2972            2991     168.850E-06     173.183E-06
            2973            2991     168.850E-06     173.183E-06
            2956            2991     168.850E-06     173.183E-06
            2957            2991     168.850E-06     173.183E-06
            2974            2992     165.610E-06     169.709E-06
            2957            2992     165.610E-06     169.709E-06
            2958            2992     165.610E-06     169.709E-06
            2973            2992     165.610E-06     169.709E-06
            2974            2993     162.804E-06     167.304E-06
            2958            2993     162.804E-06     167.304E-06
            2975            2993     162.804E-06     167.304E-06
            2959            2993     162.804E-06     167.304E-06
            2959            2994     161.548E-06     165.673E-06
            2976            2994     161.548E-06     165.673E-06
            2960            2994     161.548E-06     165.673E-06
            2975            2994     161.548E-06     165.673E-06
            2960            2995     165.238E-06     160.188E-06
            2976            2995     165.238E-06     160.188E-06
            2977            2995     165.238E-06     160.188E-06
            2961            2995     165.238E-06     160.188E-06
            2977            2996     169.107E-06     151.604E-06
            2961            2996     169.107E-06     151.604E-06
            2962            2996     169.107E-06     151.604E-06
            2978            2996     169.107E-06     151.604E-06
            2980            2997     113.563E-06     114.121E-06
            2964            2997     113.563E-06     114.121E-06
            2979            2997     113.563E-06     114.121E-06
            2963            2997     113.563E-06     114.121E-06
            2981            2998     166.935E-06     167.823E-06
            2980            2998     166.935E-06     167.823E-06
            2964            2998     166.935E-06     167.823E-06
            2965            2998     166.935E-06     167.823E-06
            2981            2999     201.703E-06     196.261E-06
            2966            2999     201.703E-06     196.261E-06
            2965            2999     201.703E-06     196.261E-06
            2982            2999     201.703E-06     196.261E-06
            2967            3000     206.126E-06     200.093E-06
            2982            3000     206.126E-06     200.093E-06
            2983            3000     206.126E-06     200.093E-06
            2966            3000     206.126E-06     200.093E-06
            2983            3001     202.238E-06     196.465E-06
            2984            3001     202.238E-06     196.465E-06
            2967            3001     202.238E-06     196.465E-06
            2968            3001     202.238E-06     196.465E-06
            2969            3002     196.467E-06     191.239E-06
            2968            3002     196.467E-06     191.239E-06
            2984            3002     196.467E-06     191.239E-06
            2985            3002     196.467E-06     191.239E-06
            2985            3003     190.938E-06     186.120E-06
            2969            3003     190.938E-06     186.120E-06
            2986            3003     190.938E-06     186.120E-06
            2970            3003     190.938E-06     186.120E-06
            2970            3004     185.912E-06     181.595E-06
            2987            3004     185.912E-06     181.595E-06
            2986            3004     185.912E-06     181.595E-06
            2971            3004     185.912E-06     181.595E-06
            2987            3005     181.504E-06     177.805E-06
            2971            3005     181.504E-06     177.805E-06
            2972            3005     181.504E-06     177.805E-06
            2988            3005     181.504E-06     177.805E-06
            2988            3006     177.652E-06     174.522E-06
            2973            3006     177.652E-06     174.522E-06
            2972            3006     177.652E-06     174.522E-06
            2989            3006     177.652E-06     174.522E-06
            2990            3007     174.199E-06     172.050E-06
            2989            3007     174.199E-06     172.050E-06
            2974            3007     174.199E-06     172.050E-06
            2973            3007     174.199E-06     172.050E-06
            2974            3008     171.403E-06     170.118E-06
            2990            3008     171.403E-06     170.118E-06
            2975            3008     171.403E-06     170.118E-06
            2991            3008     171.403E-06     170.118E-06
            2976            3009     169.030E-06     169.044E-06
            2992            3009     169.030E-06     169.044E-06
            2975            3009     169.030E-06     169.044E-06
            2991            3009     169.030E-06     169.044E-06
            2976            3010     167.775E-06     168.909E-06
            2993            3010     167.775E-06     168.909E-06
            2992            3010     167.775E-06     168.909E-06
            2977            3010     167.775E-06     168.909E-06
            2993            3011     172.218E-06     165.277E-06
            2977            3011     172.218E-06     165.277E-06
            2994            3011     172.218E-06     165.277E-06
            2978            3011     172.218E-06     165.277E-06
            2980            3012     87.9607E-06     94.1629E-06
            2995            3012     87.9607E-06     94.1629E-06
            2979            3012     87.9607E-06     94.1629E-06
            2996            3012     87.9607E-06     94.1629E-06
            2997            3013     154.161E-06     134.267E-06
            2996            3013     154.161E-06     134.267E-06
            2980            3013     154.161E-06     134.267E-06
            2981            3013     154.161E-06     134.267E-06
            2982            3014     186.810E-06     168.364E-06
            2981            3014     186.810E-06     168.364E-06
            2998            3014     186.810E-06     168.364E-06
            2997            3014     186.810E-06     168.364E-06
            2983            3015     199.895E-06     182.870E-06
            2982            3015     199.895E-06     182.870E-06
            2998            3015     199.895E-06     182.870E-06
            2999            3015     199.895E-06     182.870E-06
            2984            3016     202.831E-06     186.367E-06
            2983            3016     202.831E-06     186.367E-06
            3000            3016     202.831E-06     186.367E-06
            2999            3016     202.831E-06     186.367E-06
            2985            3017     201.045E-06     185.877E-06
            2984            3017     201.045E-06     185.877E-06
            3000            3017     201.045E-06     185.877E-06
            3001            3017     201.045E-06     185.877E-06
            3002            3018     197.997E-06     183.661E-06
            3001            3018     197.997E-06     183.661E-06
            2985            3018     197.997E-06     183.661E-06
            2986            3018     197.997E-06     183.661E-06
            2986            3019     194.294E-06     181.119E-06
            2987            3019     194.294E-06     181.119E-06
            3003            3019     194.294E-06     181.119E-06
            3002            3019     194.294E-06     181.119E-06
            3004            3020     190.575E-06     178.616E-06
            2987            3020     190.575E-06     178.616E-06
            3003            3020     190.575E-06     178.616E-06
            2988            3020     190.575E-06     178.616E-06
            3004            3021     187.019E-06     176.382E-06
            2988            3021     187.019E-06     176.382E-06
            2989            3021     187.019E-06     176.382E-06
            3005            3021     187.019E-06     176.382E-06
            2990            3022     183.582E-06     174.641E-06
            3006            3022     183.582E-06     174.641E-06
            2989            3022     183.582E-06     174.641E-06
            3005            3022     183.582E-06     174.641E-06
            2991            3023     180.581E-06     173.287E-06
            2990            3023     180.581E-06     173.287E-06
            3006            3023     180.581E-06     173.287E-06
            3007            3023     180.581E-06     173.287E-06
            2992            3024     177.257E-06     172.538E-06
            2991            3024     177.257E-06     172.538E-06
            3007            3024     177.257E-06     172.538E-06
            3008            3024     177.257E-06     172.538E-06
            3009            3025     172.485E-06     175.259E-06
            3008            3025     172.485E-06     175.259E-06
            2993            3025     172.485E-06     175.259E-06
            2992            3025     172.485E-06     175.259E-06
            3010            3026     168.557E-06     180.470E-06
            2994            3026     168.557E-06     180.470E-06
            2993            3026     168.557E-06     180.470E-06
            3009            3026     168.557E-06     180.470E-06


  Minimum                            44.7854E-06     76.6045E-06
      At Element                            2995            2995
            Node                             596             596

  Maximum                                1.62422         1.69091
      At Element                            1737            2641
            Node                             389              20

           Total                     1.54030E+03     1.58854E+03


